VonMises,s11,s22,s33,s12,s23,s31,e11,e22,e33,e12,e23,e31,lamda,ux,uy,uz
2.4877175258076,0.08672465576094403,2.4404176510072553,0.020312206860707907,-0.01365281684577335,3.000533415300074e-12,1.1138589934224494e-13,-9.307061451420644e-06,3.4404379888868e-05,-1.054043550242503e-05,-5.071046257001532e-07,1.1144837668515124e-16,4.137188070375966e-18,0.0,-1.8445440004928713e-05,7.447286930449742e-05,9.292379857881177e-16
4.9754350516151895,0.1734493115218898,4.880835302014497,0.04062441372141637,-0.027305633691577895,6.114163778179362e-12,2.192952358112262e-13,-1.8614122902841206e-05,6.88087597777358e-05,-2.108087100485e-05,-1.0142092514014648e-06,2.2709745863821545e-16,8.145248075783262e-18,0.0,-3.689088000986699e-05,0.00014894573860899581,2.990967357057821e-15
7.463152577422778,0.2601739672828355,7.321252953021739,0.06093662058212567,-0.04095845053738002,9.227147044945259e-12,3.274929470227601e-13,-2.7921184354261775e-05,0.0001032131396666036,-3.162130650727496e-05,-1.5213138771026862e-06,3.4272260969640175e-16,1.2164010950033071e-17,0.0,-5.5336320014805135e-05,0.00022341860791349428,5.040184826669421e-15
9.950870103230367,0.3468986230437811,9.76167060402898,0.08124882744283475,-0.05461126738318395,1.2338914870561319e-11,4.3640642937292213e-13,-3.7228245805682344e-05,0.0001376175195554714,-4.2161742009699925e-05,-2.0284185028039756e-06,4.583026876906211e-16,1.6209379373594755e-17,0.0,-7.378176001974379e-05,0.0002978914772179927,7.054012685845375e-15
12.438587629037952,0.43362327880472734,12.202088255036223,0.1015610343035436,-0.0682640842289872,1.5456383234039662e-11,5.450902984710234e-13,-4.6535307257102906e-05,0.00017202189944433917,-5.2702177512124884e-05,-2.5355231285052396e-06,5.740941193580297e-16,2.0246238499208698e-17,0.0,-9.222720002468241e-05,0.0003723643465224912,9.069401143179767e-15
14.926305154845544,0.5203479345656731,14.642505906043464,0.12187324116425241,-0.08191690107479048,1.85701235512528e-11,6.54015435609106e-13,-5.584236870852347e-05,0.000206426279333207,-6.324261301454986e-05,-3.0426277542065036e-06,6.897474750900465e-16,2.429199802455782e-17,0.0,-0.00011067264002962128,0.00044683721582698964,1.1025697090538322e-14
17.41402268065313,0.6070725903266191,17.082923557050705,0.1421854480249615,-0.09556971792059367,2.167725323561065e-11,7.624862217519583e-13,-6.514943015994402e-05,0.0002408306592220748,-7.378304851697482e-05,-3.5497323799077643e-06,8.051551962269836e-16,2.8320904747160485e-17,0.0,-0.0001291180800345602,0.0005213100851314881,1.2964597011772089e-14
19.90174020646072,0.6937972460875641,19.52334120805795,0.16249765488567022,-0.10922253476639873,2.47854126274463e-11,8.710387307105085e-13,-7.445649161136459e-05,0.0002752350391109426,-8.432348401939978e-05,-4.056837005609095e-06,9.206011886576715e-16,3.2352860930076813e-17,0.0,-0.00014756352003949928,0.0005957829544359865,1.493705015617336e-14
22.38945773226831,0.7805219018485098,21.963758859065187,0.18280986174637923,-0.1228753516122001,2.790290922244279e-11,9.798452304655749e-13,-8.376355306278518e-05,0.0003096394189998104,-9.486391952182473e-05,-4.563941631310289e-06,1.0363936179180452e-15,3.639429424616125e-17,0.0,-0.0001660089600444378,0.0006702558237404849,1.6930528207145243e-14
24.877175258075894,0.8672465576094558,24.404176510072432,0.20312206860708895,-0.13652816845800747,3.100887547107898e-11,1.0885534771081316e-12,-9.307061451420574e-05,0.0003440437988886781,-0.0001054043550242497,-5.071046257011703e-06,1.1517580797964064e-15,4.0431969584201155e-17,0.0,-0.00018445440004937716,0.0007447286930449834,1.88605052941384e-14
27.364892783883484,0.9539712133704018,26.84459416107967,0.22343427546779762,-0.15018098530381216,3.411800662148675e-11,1.1968883990698857e-12,-0.00010237767596562629,0.00037844817877754597,-0.00011594479052667467,-5.578150882713026e-06,1.2672403483349146e-15,4.44558401627728e-17,0.0,-0.00020289984005431535,0.0008192015623494817,2.0838465514467903e-14
29.852610309691077,1.0406958691313484,29.28501181208691,0.24374648232850635,-0.16383380214961335,3.723589548599859e-11,1.3056403859922082e-12,-0.00011168473741704686,0.00041285255866641376,-0.00012648522602909965,-6.085255508414208e-06,1.3830474694189555e-15,4.8495312301778186e-17,0.0,-0.00022134528005925326,0.0008936744316539803,2.2847727662713565e-14
32.34032783549866,1.1274205248922937,31.72542946309416,0.26405868918921555,-0.17748661899541762,4.034157941945327e-11,1.4146730164929844e-12,-0.00012099179886846744,0.0004472569385552816,-0.00013702566153152458,-6.592360134115515e-06,1.4984013205357793e-15,5.25450239390301e-17,0.0,-0.00023979072006419198,0.0009681473009584788,2.4798136904675547e-14
34.828045361306245,1.2141451806532393,34.165847114101396,0.284370896049924,-0.1911394358412195,4.345102260243007e-11,1.5229329020512342e-12,-0.000130298860319888,0.00048166131844414934,-0.00014756609703394958,-7.099464759816725e-06,1.6138951974287902e-15,5.65661114599549e-17,0.0,-0.0002582361600691306,0.001042620170262977,2.679258280220408e-14
37.31576288711384,1.3008698364141849,36.606264765108634,0.30468310291063283,-0.20479225268702522,4.656346724154705e-11,1.6316599077946668e-12,-0.00013960592177130856,0.0005160656983330171,-0.00015810653253637452,-7.606569385518077e-06,1.7294998978311926e-15,6.060459450820799e-17,0.0,-0.00027668160007406984,0.0011170930395674756,2.879958386064929e-14
39.80348041292143,1.3875944921751304,39.046682416115885,0.3249953097713419,-0.218445069532829,4.967795049344835e-11,1.740206380408876e-12,-0.00014891298322272913,0.000550470078221885,-0.0001686469680387995,-8.11367401121936e-06,1.8451811408210965e-15,6.463633246766321e-17,0.0,-0.0002951270400790084,0.001191565908871974,3.079956694327555e-14
42.29119793872901,1.474319147936076,41.487100067123116,0.345307516632051,-0.2320978863786361,5.2784600241997644e-11,1.8487519243547245e-12,-0.0001582200446741497,0.0005848744581107527,-0.00017918740354122447,-8.620778636920767e-06,1.9605705425235843e-15,6.866796273242333e-17,0.0,-0.0003135724800839468,0.0012660387781764726,3.277374392832045e-14
44.7789154645366,1.561043803697022,43.92751771813036,0.3656197234927599,-0.2457507032244374,5.589912509824148e-11,1.9573628465531316e-12,-0.00016752710612557027,0.0006192788379996206,-0.0001897278390436494,-9.127883262621962e-06,2.07625341793834e-15,7.270215499729828e-17,0.0,-0.0003320179200888843,0.001340511647480971,3.477964727174301e-14
47.266632990344185,1.6477684594579682,46.367935369137605,0.385931930353469,-0.2594035200702398,5.900842563775815e-11,2.0665461999287693e-12,-0.0001768341675769908,0.0006536832178884883,-0.00020026827454607438,-9.634987888323196e-06,2.191741672034639e-15,7.675756878524824e-17,0.0,-0.0003504633600938227,0.0014149845167854694,3.6755347853316374e-14
49.75435051615178,1.7344931152189147,48.80835302014485,0.40624413721417796,-0.27305633691604486,6.211936063358878e-11,2.174846946894868e-12,-0.00018614122902841138,0.000688087597777356,-0.00021080871004849935,-1.0142092514024523e-05,2.3072905072309976e-15,8.07800903460603e-17,0.0,-0.0003689088000987611,0.001489457386089968,3.87549652727758e-14
52.242068041959364,1.8212177709798603,51.248770671152094,0.42655634407488674,-0.2867091537618459,6.522696728201643e-11,2.2834682701789094e-12,-0.00019544829047983195,0.0007224919776662239,-0.00022134914555092434,-1.0649197139725706e-05,2.4227154595191495e-15,8.481457168616945e-17,0.0,-0.0003873542401036999,0.0015639302553944663,4.075721561214084e-14
54.72978556776696,1.9079424267408058,53.68918832215933,0.44686855093559563,-0.3003619706076526,6.834424396834523e-11,2.3920320160246184e-12,-0.00020475535193125252,0.0007568963575550917,-0.00023188958105334928,-1.115630176542709e-05,2.5385008149384984e-15,8.88469784863626e-17,0.0,-0.0004057996801086389,0.0016384031246989646,4.279520807501927e-14
57.21750309357455,1.9946670825017518,56.129605973166576,0.4671807577963047,-0.3140147874534548,7.145816258988353e-11,2.5007114739480086e-12,-0.00021406241338267306,0.0007913007374439595,-0.00024243001655577422,-1.166340639112832e-05,2.6541599295026316e-15,9.28834210035508e-17,0.0,-0.00042424512011357676,0.0017128759940034633,4.4774000106501095e-14
59.705220619382125,2.081391738262697,58.57002362417382,0.4874929646570131,-0.32766760429925856,7.456975731171724e-11,2.609356385408399e-12,-0.00022336947483409363,0.0008257051173328273,-0.0002529704520581992,-1.2170511016829604e-05,2.769734157974465e-15,9.691885459149023e-17,0.0,-0.00044269056011851546,0.0017873488633079616,4.673686184799462e-14
62.19293814518971,2.168116394023643,61.01044127518105,0.5078051715177224,-0.3413204211450627,7.767911134253145e-11,2.7182524087933894e-12,-0.0002326765362855142,0.000860109497221695,-0.0002635108875606242,-1.2677615642530901e-05,2.8852242258761547e-15,1.0096375397631408e-16,0.0,-0.000461136000123454,0.00186182173261246,4.8697901803353406e-14
64.68065567099731,2.2548410497845888,63.45085892618831,0.5281173783784314,-0.3549732379908663,8.079446828562604e-11,2.826507465276166e-12,-0.00024198359773693477,0.000894513877110563,-0.0002740513230630491,-1.3184720268232176e-05,3.0009373918409405e-15,1.0498457509457207e-16,0.0,-0.0004795814401283922,0.0019362946019169582,5.06694124944735e-14
67.1683731968049,2.341565705545535,65.89127657719554,0.5484295852391402,-0.36862605483667155,8.389836620409038e-11,2.9357212789740183e-12,-0.0002512906591883553,0.0009289182569994308,-0.00028459175856547405,-1.3691824893933523e-05,3.116225764583148e-15,1.090414115861256e-16,0.0,-0.0004980268801333308,0.002010767471221457,5.259691301158575e-14
69.65594551944444,2.428288401905991,68.33152872139277,0.5687254127765075,-0.3822802992861256,8.710925860460536e-11,3.0401435354005567e-12,-0.00026059730640884784,0.0009633211389954358,-0.0002951321609518721,-1.419923102980888e-05,3.2353909649681337e-15,1.129862796036344e-16,7.972174056447361e-10,-0.0005164813924673937,0.002085239788500584,5.451502382094974e-14
72.132230273279,2.5151796236341366,70.7598522701901,0.5888584390736578,-0.3958833598206211,9.006145520322409e-11,3.3059468077247787e-12,-0.00026988074134961674,0.0009976274101899708,-0.000305667295509509,-1.472936574009864e-05,3.341987945037625e-15,1.2484119827654026e-16,7.651141912565132e-08,-0.0005354634809908722,0.002159691321921254,5.489469536957645e-14
74.57606401500337,2.6018696566978297,73.1545939127694,0.6094126675889673,-0.409264468163373,9.308616222740765e-11,3.2971166574886047e-12,-0.000279108897351289,0.0010316616943513656,-0.0003161763613597555,-1.535737460777214e-05,3.4445448549791465e-15,1.2683263189676564e-16,3.674852856644883e-07,-0.0005556085466716655,0.0022341677300821068,5.587785189477224e-14
77.0036942386323,2.688370219188676,75.53230516002643,0.63018693342733,-0.42234976850607137,9.651464533939211e-11,3.2298695527220914e-12,-0.00028831231831870835,0.0010655621190008887,-0.0003266734446099379,-1.599408667156854e-05,3.562672921441544e-15,1.2616328102605875e-16,7.699824568721705e-07,-0.0005761092187052839,0.002308651283294581,5.624130367007024e-14
79.41225392529277,2.775137704691993,77.89060547883257,0.6516283422079941,-0.435783305872132,9.993777932162179e-11,3.0998470670771242e-12,-0.0002974893837228094,0.001099320514731043,-0.0003371604365754762,-1.660025312406316e-05,3.685390641065392e-15,1.2372761245672013e-16,1.3145260021619442e-06,-0.0005968232947017863,0.0023831414925795788,5.650133661510492e-14
81.80396927784602,2.8620363144617165,80.23183414634475,0.6734087852326555,-0.4496520038486413,1.0319917939397691e-10,3.189501082038665e-12,-0.00030663863935304135,0.0011329459759945961,-0.00034763716952133087,-1.718490319703246e-05,3.805015822497542e-15,1.3167049298969476e-16,1.9751858784839717e-06,-0.0006179498482583192,0.0024576138656147847,5.733695385666174e-14
84.18593218010939,2.949236111836024,82.5639630840463,0.6959020937537039,-0.46251951909942196,1.0625807330077102e-10,3.2267406832828883e-12,-0.00031577326849444634,0.0011665107240718374,-0.00035811401963661377,-1.7809450076703376e-05,3.922839895176403e-15,1.3553174457867727e-16,2.7170145742241018e-06,-0.0006394664813791333,0.002532106208564051,5.787852857658003e-14
86.56033818575935,3.0358599382005402,84.88719215641984,0.7176349145707286,-0.4758406133172334,1.0951569332143276e-10,3.363441037372418e-12,-0.00032488501081549516,0.001199987929567874,-0.0003685847072712868,-1.8482896980803717e-05,4.046741304198434e-15,1.4400311132117828e-16,3.496541246066708e-06,-0.0006615750288033785,0.0026065762808171193,5.844084742599437e-14
88.92069075935088,3.1215806493850975,87.19551166782993,0.7386544064997684,-0.489334668145128,1.1246953031984297e-10,3.3050415418072505e-12,-0.00033396732690813523,0.0012333308333981863,-0.0003790449537831094,-1.923352757528894e-05,4.160721197731556e-15,1.4656953258664244e-16,4.355624911725096e-06,-0.0006845736765572432,0.0026810541470845997,5.928839660493553e-14
91.26793000863981,3.2068003611788916,89.4907917999619,0.7594357837711592,-0.5023874890571814,1.1547391065095836e-10,3.108111472548261e-12,-0.00034302398245873554,0.0012665639479071597,-0.00038949980576321306,-2.004843128707708e-05,4.277133041532965e-15,1.4571498084922816e-16,5.29953277579107e-06,-0.0007081575474563683,0.0027555283796354023,5.968218536368167e-14
93.58439803070065,3.2907877761948816,91.75516963465245,0.7802976543624387,-0.5148505029855347,1.1814820212838371e-10,3.1586908375858138e-12,-0.00035204462765781383,0.0012995613805357506,-0.0003999381525053094,-2.0947696983361564e-05,4.3850711493085814e-15,1.5382484484101408e-16,6.457131602680572e-06,-0.0007326985300946422,0.002830003983237409,6.020115716633915e-14
95.88148603230343,3.3729267331025596,93.99852120288105,0.7999924450803676,-0.5277331961961567,1.2086796120872468e-10,3.060397235135613e-12,-0.0003610399951707035,0.0013323864191804914,-0.0004103667646894223,-2.1911499018265648e-05,4.4934365896343225e-15,1.6031788270723985e-16,7.734410103688638e-06,-0.0007580182115880401,0.0029044843267213485,6.113152760152315e-14
98.1524378671698,3.4543580587479377,96.2147084494257,0.8191431472925405,-0.541088031639936,1.2353800904321124e-10,2.946570354225278e-12,-0.0003699853794559798,0.0013649915348744733,-0.00042078781453011555,-2.2933416960462348e-05,4.602614614775243e-15,1.6211209900004229e-16,9.18149979651944e-06,-0.0007842375857813439,0.0029789770921256503,6.11992725073558e-14
100.40255982843446,3.535616349793565,98.40946996856658,0.8379667934286567,-0.5550685207944185,1.263106294124845e-10,3.1003875520627636e-12,-0.00037888406627207264,0.0013974254622444678,-0.0004312096639050305,-2.4057773537412896e-05,4.721918027131025e-15,1.7841492194309048e-16,1.0771800256348654e-05,-0.0008112804134881258,0.0030534959208452493,6.193055821177653e-14
102.61963224191253,3.6154742991361464,100.57002100638256,0.8557043624326781,-0.5696159199402328,1.289509836333545e-10,3.3224046684043327e-12,-0.00038772879379661286,0.0014295803480041053,-0.0004416161275334843,-2.520841171187172e-05,4.831080090784505e-15,1.9144486909343745e-16,1.2567474836294716e-05,-0.0008386578471894885,0.003128113472837058,6.24180641185105e-14
104.82109298558643,3.6954974846993105,102.7150691228395,0.8737653397221924,-0.5849925976444137,1.313840293588392e-10,3.589799864031618e-12,-0.0003965496493906086,0.0014616308961716731,-0.0004520279213681443,-2.6381632412220696e-05,4.9386111806303746e-15,2.055361417957756e-16,1.448937130537802e-05,-0.0008663254024773759,0.003202742392658614,6.279731196219786e-14
107.01093485995322,3.775077471650935,104.84775846982939,0.8914560667732889,-0.600288709790751,1.344499246821346e-10,3.738086284583066e-12,-0.0004053541451984469,0.0014936009267976637,-0.0004624508272663391,-2.7574939053693723e-05,5.070772296642059e-15,2.2251843891086935e-16,1.6510468889634588e-05,-0.0008944737074939157,0.0032773294590538065,6.353049273049114e-14
109.1775982200476,3.853893967743432,106.95721605510282,0.9093281124904797,-0.6154559059902468,1.3677799670792045e-10,3.822085823632991e-12,-0.00041412572570158617,0.0015254085459431009,-0.00047288031661101915,-2.882992535893115e-05,5.180239805123387e-15,2.4096001048074527e-16,1.8708925745287165e-05,-0.0009236285457768781,0.003351865065505256,6.458895410238937e-14
111.31235664972351,3.930965982801757,109.0338857574264,0.926066867519235,-0.630677765927734,1.388532926354054e-10,4.020567140520867e-12,-0.00042285316638865085,0.001556982493884268,-0.00048332407830848907,-3.0206563711890574e-05,5.278280339641255e-15,2.6955136494799135e-16,2.1143074338718094e-05,-0.0009543286767618186,0.003426347212385816,6.539453037353787e-14
113.41669420615533,4.006651914607081,111.07964039077532,0.942587746593769,-0.6463416692001057,1.4093296296233426e-10,4.4788111135171755e-12,-0.00043154902457659194,0.0015883613574223883,-0.0004937901611202182,-3.168515955849883e-05,5.3721549259370155e-15,3.003925182771307e-16,2.382622698668803e-05,-0.0009859372483965643,0.003500869399975875,6.56368910498867e-14
115.48065264459157,4.081717691477471,113.08622196049588,0.9602433182958702,-0.6627744657670749,1.4335733121066124e-10,5.32680085272841e-12,-0.000440202472991404,0.0016195008711888284,-0.0005042802097958858,-3.322344657934278e-05,5.4620159236635145e-15,3.326139775088405e-16,2.6846950185831818e-05,-0.0010183953017520305,0.003575422982737371,6.618057123510288e-14
117.52785589068512,4.156357070802493,115.07566208772944,0.9779056768697543,-0.6791215349742503,1.457718689471944e-10,5.8626324669484435e-12,-0.0004488374893274046,0.0016505229284422955,-0.0005147715829125956,-3.473642952092344e-05,5.5653868694645276e-15,3.5799557661099306e-16,2.999771570968346e-05,-0.0010510998934033088,0.0036499790504310003,6.679811247793025e-14
119.54420438219788,4.229635937354971,117.03392688651122,0.9944444350261253,-0.6963774878878428,1.4806592050773988e-10,6.379965007433191e-12,-0.0004574485685123971,0.001681353625225206,-0.0005252878723762812,-3.626322042395759e-05,5.655178942586168e-15,3.7787935019240816e-16,3.3404993306443426e-05,-0.0010844304688225569,0.0037245187407113772,6.721047025074756e-14
121.49394240574972,4.300441036091336,118.92553678185395,1.009984327985849,-0.7136088211216571,1.500781917997585e-10,6.713681611205537e-12,-0.00046600232300432834,0.0017117863285279619,-0.0005358642218325983,-3.790881500267934e-05,5.731051147614922e-15,3.931677797979579e-16,3.736927356143001e-05,-0.0011196008155175707,0.0037990286666341228,6.834891753830138e-14
123.42156923237859,4.370288760038168,120.79464644897041,1.024788810100103,-0.7308721219758273,1.5226017314846381e-10,7.228714397363074e-12,-0.0004745503977281147,0.0017421229619997021,-0.0005464884270195377,-3.9631772405881857e-05,5.8203534932809855e-15,4.201288179620481e-16,4.15608735799599e-05,-0.0011553009221048087,0.00387353964588184,6.868784666471272e-14
125.25045779874169,4.437691770520917,122.56711053952436,1.0399078164541509,-0.7470559071145467,1.542321476629964e-10,7.618518855418366e-12,-0.0004830597363257438,0.0017719530986493018,-0.0005572093044578467,-4.1530186432250053e-05,5.89853358428928e-15,4.452127715995334e-16,4.664245682011638e-05,-0.0011930007521642554,0.003948097355389038,6.885260694225622e-14
126.95640664753296,4.501128554394945,124.2207280035639,1.0552517502679266,-0.760825244892079,1.5614454475901574e-10,8.274926169256016e-12,-0.0004916898200788546,0.001801285861747864,-0.0005680125656219993,-4.370559379368954e-05,5.973338546225954e-15,4.817238352358838e-16,5.293209936569923e-05,-0.0012332589484699993,0.004022683898689837,7.123045937647267e-14
128.5553324596069,4.560105117027062,125.76963624355876,1.0702687147622483,-0.7734817998218362,1.5837561923191493e-10,8.500265689523054e-12,-0.0005004469230910408,0.0018301862471402069,-0.0005788821236186057,-4.6183336734123104e-05,6.0403238303608396e-15,5.059726675262061e-16,6.0290068212710525e-05,-0.0012761102245863695,0.004097304328225003,7.051635693880437e-14
130.08311303426842,4.617932601399536,127.24921754916402,1.0845381273823371,-0.7856861170779751,1.606366250575309e-10,8.690670191948555e-12,-0.0005092314984959606,0.0018587706207338704,-0.0005898151892210757,-4.879061576340467e-05,6.133084014624354e-15,5.206368306612996e-16,6.832687223436074e-05,-0.0013203150090198013,0.004171992491460812,7.105624989836408e-14
131.45242260135078,4.671612677986946,128.5757686648006,1.0984476618305492,-0.7971771752167186,1.624486487054405e-10,8.82888353253053e-12,-0.0005181535858398338,0.0018867174960027731,-0.0006008734587079784,-5.163688850301629e-05,6.24000348929237e-15,5.396736704879428e-16,7.792648327471254e-05,-0.0013673377183596397,0.004246694789903305,7.283513445695726e-14
132.80944100653366,4.723298496088608,129.8890588226613,1.1119559405579078,-0.8080271797741106,1.6384080132846486e-10,8.882933516963842e-12,-0.0005271430281254334,0.0019147012854927989,-0.0006119907530284638,-5.442007628490523e-05,6.30865312125406e-15,5.541740469962268e-16,8.774163217199792e-05,-0.0014139754753485965,0.004321360470730847,7.33930029534642e-14
134.12521120165064,4.772812967502308,131.16004908590008,1.125129562353795,-0.8186267113958551,1.6552791685312284e-10,9.070807583841457e-12,-0.0005361758621920309,0.0019425266826647602,-0.0006231622969541222,-5.725091247425974e-05,6.392048265522632e-15,5.823273447889727e-16,9.79985885095168e-05,-0.0014614206077823869,0.004396020981937895,7.480150845120997e-14
135.4209366794928,4.82049897747259,132.40908676235225,1.1377305092749892,-0.8286659029251783,1.6680792794257695e-10,9.047757292206479e-12,-0.0005452467162110359,0.0019702789224643634,-0.0006343618276870428,-6.006298551854091e-05,6.458463289242578e-15,6.093129600161114e-16,0.00010848632044833286,-0.0015090679482448151,0.0044706651493959595,7.630579738404503e-14
136.66574769647738,4.866808024887954,133.60721582027918,1.1508042315493565,-0.8383923704689993,1.6800168728647396e-10,9.11904187553582e-12,-0.0005543602203826005,0.001997843664898905,-0.0006456272840779247,-6.298094351281854e-05,6.509381885223759e-15,6.305351179229968e-16,0.0001195220802337797,-0.001557745844279923,0.00454536505234361,7.624623201500374e-14
137.8834756805704,4.913049318497507,134.77819162987828,1.1641459432263603,-0.8474153282060085,1.6919323565673899e-10,9.179283477660289e-12,-0.0005635290573486423,0.002025348246353408,-0.000656931263909896,-6.589280772508972e-05,6.56685702493242e-15,6.580033414195525e-16,0.0001308849537718206,-0.0016066180382094115,0.004620050216251569,7.668369575652146e-14
139.04743524613474,4.958223596993503,135.89577879306978,1.178014679798657,-0.8562240462544851,1.7092285893251495e-10,9.621537638830587e-12,-0.000572749293431041,0.0020526958188817426,-0.0006683349993372046,-6.894170818883021e-05,6.630219776940349e-15,6.904219386246993e-16,0.00014286471036763787,-0.0016565275908609442,0.004694841970428913,7.731763670217233e-14
140.17929792046266,5.000822679983824,136.98053785040298,1.190436853354169,-0.8642655929991196,1.720312937133457e-10,9.708603640805908e-12,-0.0005820399972022155,0.002079928767971317,-0.0006797642142905815,-7.18648713571649e-05,6.686610986547332e-15,7.113870349625417e-16,0.0001551789525654523,-0.001706527109775169,0.004769544495214698,7.805756772860885e-14
141.26559795319483,5.041120963346407,138.0203069179329,1.203069100196303,-0.8714659747522094,1.7358384890728342e-10,9.439696944555553e-12,-0.000591359305656259,0.0021070094488712288,-0.0006912815890351085,-7.492421066742059e-05,6.702724833641203e-15,7.239904884477564e-16,0.0001680001330734838,-0.0017576231940206947,0.004844349856828188,7.772756542680998e-14
142.33639892677942,5.079925113379666,139.0444124588158,1.2143494006487732,-0.8780290290250233,1.7411957019570226e-10,9.478352579315416e-12,-0.0006007525412870206,0.0021340292653348417,-0.0007027699413458539,-7.780188392664216e-05,6.743031942562729e-15,7.462634745079325e-16,0.0001809609497585517,-0.0018082583329922246,0.004919011918972703,7.866780441436547e-14
143.3623569016933,5.118407377509432,140.02440556238747,1.2267356748500027,-0.8839575629489788,1.757600888567186e-10,9.71048029382821e-12,-0.0006101649293760481,0.0021609333971818845,-0.0007143710471501396,-8.08418433488242e-05,6.802288239165376e-15,7.828299725715461e-16,0.00019446296568634508,-0.0018601871760882123,0.004993818080219247,7.906889337704941e-14
144.38933537284294,5.155799883971434,141.00375508707853,1.2378929748479977,-0.8897665664517452,1.7640319689670343e-10,9.455405555602095e-12,-0.0006196390902568696,0.002187822614242444,-0.000725912392866157,-8.365406578951898e-05,6.8452144830715426e-15,8.047567485277101e-16,0.00020792621448263428,-0.0019110347243526515,0.00506847899583743,8.001787345554533e-14
145.38371395862364,5.191660962919477,141.94824388368434,1.2491609350309663,-0.8960622307436698,1.780419800622882e-10,9.57553066533134e-12,-0.0006290984446528358,0.0022146283662644946,-0.0007375924028594599,-8.670920752632769e-05,6.892754322370321e-15,8.314028647307835e-16,0.00022182241141348644,-0.0019633129447540892,0.005143326918723896,8.114599656281345e-14
146.35691817421454,5.225709555357909,142.87120974847977,1.2584190872793766,-0.9020341940601718,1.7874162246030356e-10,1.0086461709075522e-11,-0.0006386456079495253,0.0022413090786726863,-0.0007492043942024919,-8.958047387522933e-05,6.9643575550307576e-15,8.592140334816473e-16,0.00023587069936981095,-0.002015150652055782,0.005217990419258385,8.230740952870628e-14
147.3254791694339,5.259972505298793,143.78780469560425,1.2688298156307811,-0.9084489093646184,1.8028666509867457e-10,1.0470520310252553e-11,-0.0006481302832536448,0.0022680577070987914,-0.0007609753837506674,-9.278180604989562e-05,7.020727724495205e-15,8.916203875004049e-16,0.00025011853170015295,-0.002068351831095841,0.0052928125870908265,8.379178723148081e-14
148.2346876012657,5.291497961115119,144.64648352919266,1.2777740472970651,-0.9132115522071164,1.8161003980000743e-10,1.0852276556830963e-11,-0.0006577788472205327,0.0022945173429134713,-0.0007726484640494823,-9.565719660000063e-05,7.083531098920542e-15,9.252165071654055e-16,0.000264865375855643,-0.0021209967836371144,0.005367555214676569,8.465458398406108e-14
149.19809862508794,5.324851993887957,145.555133435043,1.2875554391236552,-0.9194954390347894,1.8314514494398952e-10,1.121536731230394e-11,-0.0006672682140296294,0.0023212785015388694,-0.0007844814825489281,-9.88507403401975e-05,7.130869243059838e-15,9.54941875435688e-16,0.000279240045593461,-0.002174239846003875,0.005442383855038885,8.54471559960781e-14
150.04918150840405,5.3535155345635514,146.35393643859558,1.2958390992259985,-0.9236089366468302,1.8443266858901036e-10,1.1602179229435306e-11,-0.0006769995694800915,0.002347553217538529,-0.0007962491276448078,-0.00010167851815212953,7.191090484130512e-15,9.811603416726925e-16,0.00029464727893631186,-0.002227473242143604,0.005517185995117244,8.678119680177854e-14
150.99332365954385,5.38503239199653,147.24077314379025,1.304928368326857,-0.9297739519927036,1.8589982789815174e-10,1.1968836814346159e-11,-0.0006865286698009364,0.002374267600049385,-0.0008081347365106563,-0.00010483050512169729,7.231290941295045e-15,1.0130881231390278e-15,0.00030927989710948384,-0.0022808780937915354,0.005592038953948231,8.639803404053519e-14
151.79463483844597,5.411885862329102,147.98899896279946,1.313048749851246,-0.933293446571296,1.8717807971826427e-10,1.2209125666408434e-11,-0.0006963354920731729,0.00240036795486097,-0.0008199528423593404,-0.00010760094775600256,7.287377431596336e-15,1.0456766739093137e-15,0.0003252304150265698,-0.002334666711115753,0.005666790424505733,8.597545511157837e-14
152.73890895632994,5.443244049052782,148.87407234086425,1.3227846504327267,-0.9392336990074621,1.885983093290237e-10,1.2376196076148079e-11,-0.0007058756822501493,0.002427122729479629,-0.0008318750412846234,-0.00011070794371445974,7.32364048001803e-15,1.06913398419956e-15,0.0003399349636635914,-0.0023877309248109763,0.005741626064725554,8.57991764442797e-14
153.46782050818274,5.466887865863584,149.54851823556325,1.3303725006941352,-0.9423207387157758,1.8966956171458122e-10,1.2816823953285986e-11,-0.0007157459987490145,0.00245293829582958,-0.0008437878479255878,-0.00011352855211284818,7.367782699058341e-15,1.0996093609990316e-15,0.0003566574404184145,-0.002442759997530018,0.005816431781260429,8.573921929327396e-14
154.39661012553466,5.496439054887098,150.4168189324902,1.3394097717221751,-0.9481836051742164,1.9122496977772147e-10,1.3131317122002087e-11,-0.0007253474686208505,0.0024796808048348352,-0.0008557466633048446,-0.00011655805322775421,7.417195836564971e-15,1.124318106318816e-15,0.0003715782992812942,-0.0024957058291762207,0.005891274835831622,8.508985955075507e-14
155.09811165724918,5.519013038879777,151.06403227527755,1.3467694800625765,-0.9512241847887607,1.9238634905616954e-10,1.3674149781256033e-11,-0.0007353080359299525,0.002505444589450169,-0.000867680468981817,-0.00011927543856939358,7.471443128199762e-15,1.1542497949523276e-15,0.0003886311738955113,-0.0025506318603124157,0.0059660771942815945,8.662815515810537e-14
156.0134084476867,5.547491320437794,151.91798141776118,1.3553892510568535,-0.9571142181931155,1.936075672661411e-10,1.3897408341461525e-11,-0.0007449494168800357,0.0025322070426033122,-0.0008797098429275292,-0.00012228939469045082,7.516851383403008e-15,1.1788472633113725e-15,0.00040378149840836555,-0.002603495648699434,0.006040933951086447,8.79591023373309e-14
156.64657325049424,5.5671009234899955,152.49597290395207,1.3621233654167977,-0.9598057581440735,1.9455688326719962e-10,1.4707990947656357e-11,-0.0007549865765108059,0.0025577466093133516,-0.0008917589059862088,-0.00012502923789494384,7.572293610029407e-15,1.2265885256988248e-15,0.00042160341177555056,-0.0026593749797895034,0.006115756703332719,9.061897394000987e-14
157.56494091616423,5.595560124862041,153.35231453483337,1.371372532878565,-0.9657821128293489,1.9559024004018325e-10,1.4880033076329194e-11,-0.0007646578523516535,0.0025845797005472283,-0.0009038118642380091,-0.00012800158674573136,7.61986899991385e-15,1.249985164198741e-15,0.0004367984412779416,-0.0027119828422576438,0.0061905669522398805,9.159571249621005e-14
158.1554362242164,5.613361722209731,153.88742775296896,1.3778973274561719,-0.9679458943339683,1.9625075058230364e-10,1.5147888519995796e-11,-0.0007747728203861223,0.0026099997323133727,-0.0009159201301979088,-0.00013070080427705642,7.655592985373331e-15,1.274245083374516e-15,0.0004551126558675456,-0.002768202668813487,0.0062653979751289696,9.182791731341345e-14
159.06371884227565,5.641407894201672,154.73251710804644,1.3871427959695057,-0.9742997735567605,1.9700844886859089e-10,1.5008382473056416e-11,-0.0007844719534022981,0.002636838552781701,-0.0009280176405324452,-0.00013366691062506158,7.691868367671686e-15,1.2990272878126368e-15,0.00047047486564108504,-0.002820825262826117,0.0063401464320008965,9.198531499211371e-14
159.62003542274718,5.657580471248204,155.23253335050308,1.3930770641607344,-0.9761977721734196,1.9754745095659265e-10,1.5257139294694387e-11,-0.000794655218528133,0.002662172696562211,-0.0009401849586860094,-0.00013630553954812642,7.721471122697535e-15,1.3241676281252157e-15,0.0004891985956211745,-0.0028771604836322147,0.006414966240471275,9.212887841433553e-14
160.5384228069842,5.685648298093853,156.0863117647694,1.4029812144196643,-0.9825043411502237,1.9840150490019605e-10,1.5015646145502596e-11,-0.0008043655930862839,0.0026891043415582135,-0.0009523105126017419,-0.00013915984728859175,7.762146796874517e-15,1.348436162876598e-15,0.0005045306348007138,-0.0029290690061151564,0.006489762616368227,9.267240188676593e-14
161.0213558466187,5.699392960252605,156.51207929050744,1.4087423726261807,-0.9837745277048703,1.9890812692274888e-10,1.5197096056131656e-11,-0.0008145910714582286,0.0027141894763118794,-0.0009646257498628726,-0.00014185215227464397,7.781265031218082e-15,1.368480526252821e-15,0.0005240829053194755,-0.0029864641031592722,0.006564650035639626,9.36268088709918e-14
161.92788728085864,5.727113396789615,157.35387269883807,1.418478395152662,-0.989738106334233,1.9970388723898012e-10,1.5214198412653193e-11,-0.0008243611605019104,0.002741108669321732,-0.0009767505688725048,-0.00014459179236474872,7.815157798754786e-15,1.3942908862768446e-15,0.000539566332647412,-0.0030380498052795433,0.006639485376763489,9.388967135243647e-14
162.42923005903484,5.741775417227836,157.7981017169062,1.4246351926498575,-0.991199387511622,2.0010176739709576e-10,1.5314307376013922e-11,-0.0008346374563285841,0.002766325018732118,-0.000989033206250483,-0.00014719139848151753,7.837459624320679e-15,1.4122028493451084e-15,0.0005589802540392896,-0.0030948773060554733,0.006714328091767162,9.448541210550802e-14
163.30681474847927,5.76880671285578,158.6108408938745,1.4345103190146293,-0.9972000406902314,2.0088376261942474e-10,1.5304066764272266e-11,-0.0008444521094947936,0.0027931639142711163,-0.0010012023309149231,-0.00014997123426644169,7.867787901502937e-15,1.4415597430502042e-15,0.000574802794265617,-0.0031469378464952288,0.00678916283346797,9.478964095822257e-14
163.7916088349393,5.7826313376191,159.03831772297733,1.4403389278079188,-0.9984634413924213,2.0129010628950795e-10,1.5542108981837535e-11,-0.0008547854272342218,0.002818360907989332,-0.001013510977964228,-0.0001525279314459605,7.888857064925091e-15,1.4691877174565745e-15,0.000594434494084992,-0.003203769189868844,0.006864002914223676,9.507308505220029e-14
164.6654894559364,5.8093166068020325,159.84624297958732,1.4500055762130468,-1.0042033085282516,2.018871404918716e-10,1.540476487484071e-11,-0.0008645970778173734,0.0028452164671596285,-0.0010257304455559557,-0.00015524597889527247,7.923433999855288e-15,1.498489924929131e-15,0.0006103464030770235,-0.0032557260659524063,0.006938767098234986,9.552910184630173e-14
165.10719806172395,5.821984527287596,160.23072242948254,1.4557554078160844,-1.005108117616767,2.0231540370699437e-10,1.5641622111578357e-11,-0.0008749902329465955,0.0028703040732466225,-0.0010381226267881056,-0.00015779090223457816,7.942563117031199e-15,1.5266587761031049e-15,0.0006304895683553086,-0.0033130429528022524,0.0070136243283143405,9.578422735947045e-14
165.97515204734637,5.848489454379989,161.03221690374875,1.465419961106835,-1.0105738224717211,2.031141357619783e-10,1.565839534803304e-11,-0.0008848304980730606,0.002897159670231694,-0.0010503513074772875,-0.00016043798706818626,7.981811689126523e-15,1.554532793210768e-15,0.0006464936745713594,-0.003364751057090342,0.007088440934732774,9.62544382690399e-14
166.39766175020387,5.860388283647551,161.39735008588443,1.4709989822903995,-1.010858660018318,2.0353529057800474e-10,1.5503387225890425e-11,-0.0008952703613123222,0.0029222185157852494,-0.0010627839410339425,-0.0001629332087405257,7.999315636672076e-15,1.5844751832960866e-15,0.0006668859624334437,-0.003422101198024296,0.007163296246337654,9.556193607701224e-14
167.26665682870865,5.886545970251933,162.1992773933052,1.4803616664938961,-1.0162132117945404,2.043599124210018e-10,1.591661344292478e-11,-0.0009051322066708535,0.002949127730543025,-0.0010750458951290232,-0.000165542491571449,8.053330035694659e-15,1.6269742760326666e-15,0.000682941782170654,-0.0034736894184922234,0.007238055172440553,9.765412722154098e-14
167.64381113837575,5.896502326951259,162.5182109577286,1.4854536219317145,-1.0160001412984643,2.04974349125501e-10,1.62074411700841e-11,-0.0009156176343831694,0.0029740429000494734,-0.0010875671690570954,-0.00016804434148427392,8.06190933519421e-15,1.652470212892156e-15,0.0007038629388230726,-0.0035315681984074998,0.007313007360659636,9.905232450048847e-14
168.50932928913448,5.922358568494615,163.31669404272915,1.4943375694597023,-1.0207984404597934,2.0556073261617513e-10,1.6107477821922252e-11,-0.0009255094681267493,0.003000961628002811,-0.0010998327874150132,-0.0001704924370853517,8.092388520985003e-15,1.6786797007924746e-15,0.0007199737260068,-0.0035824064860630607,0.007387785106609984,9.871558354890087e-14
168.88229085214843,5.932405988028271,163.6322758863742,1.4993639348553651,-1.0208604760977367,2.0595573613117818e-10,1.6407522396822938e-11,-0.0009360407401824834,0.0030259026252302066,-0.0011123530518519639,-0.00017290248977222254,8.104385029841246e-15,1.7107640136640555e-15,0.0007409665760525976,-0.0036399489463866627,0.007462686810922958,9.91581636726656e-14
