VonMises,s11,s22,s33,s12,s23,s31,e11,e22,e33,e12,e23,e31,lamda,ux,uy,uz
3.3169567010768017,0.11563287434792581,3.2538902013430087,0.027082942480943496,-0.018203755794359053,3.975168259063882e-12,1.4845106184335809e-13,-1.2409415268560859e-05,4.587250651849069e-05,-1.4053914003233387e-05,-6.761395009333361e-07,1.4764906421024607e-16,5.513901788050878e-18,0.0,-2.459392000657162e-05,9.929715907266321e-05,1.2391718912893338e-15
6.633913402153586,0.2312657486958538,6.507780402685998,0.054165884961888955,-0.03640751158876825,8.124409087303355e-12,2.9351471297603217e-13,-2.4818830537121606e-05,9.174501303698108e-05,-2.8107828006466665e-05,-1.352279001868535e-06,3.017638004978808e-16,1.0901984997453978e-17,0.0,-4.918784001315758e-05,0.00019859431814532783,4.235684414188598e-15
9.950870103230372,0.34689862304378105,9.761670604028987,0.08124882744283365,-0.05461126738316938,1.227048612817328e-11,4.381091428113581e-13,-3.722824580568237e-05,0.0001376175195554715,-4.2161742009699965e-05,-2.0284185028034344e-06,4.557609568510423e-16,1.6272624500323074e-17,0.0,-7.378176001974235e-05,0.0002978914772179924,7.212377848341205e-15
13.267826804307155,0.4625314973917089,13.015560805371978,0.1083317699237792,-0.07281502317757166,1.6423291928513908e-11,5.830558862058368e-13,-4.9637661074243116e-05,0.00018349002607396188,-5.6215656012933235e-05,-2.704558003738377e-06,6.100080555870871e-16,2.1656402755993413e-17,0.0,-9.837568002632837e-05,0.0003971886362906571,1.0221229598625346e-14
16.58478350538394,0.578164371739636,16.269451006714966,0.1354147124047243,-0.09101877897197973,2.0572473693445672e-11,7.28027007144771e-13,-6.204707634280389e-05,0.00022936253259245228,-7.026957001616653e-05,-3.3806975046735326e-06,7.641203885825787e-16,2.7041007143337947e-17,0.0,-0.000122969600032915,0.0004964857953633215,1.3163625514568241e-14
19.901740206460726,0.6937972460875642,19.523341208057957,0.16249765488566995,-0.1092225347663819,2.4722399878934975e-11,8.725304506975059e-13,-7.445649161136465e-05,0.0002752350391109427,-8.432348401939982e-05,-4.05683700560847e-06,9.18260291420014e-16,3.240827551884357e-17,0.0,-0.0001475635200395008,0.0005957829544359862,1.60999294023443e-14
23.21869690753751,0.8094301204354927,22.777231409400947,0.1895805973666147,-0.12742629056078691,2.8868706486623545e-11,1.0177665671530245e-12,-8.686590687992538e-05,0.0003211075456294331,-9.83773980226331e-05,-4.732976506543516e-06,1.072266244729322e-15,3.780271696636349e-17,0.0,-0.00017215744004608744,0.0006950801135086508,1.903027675321623e-14
26.535653608614297,0.9250629947834197,26.031121610743934,0.2166635398475601,-0.14563004635519267,3.301286155545519e-11,1.1625090035082583e-12,-9.927532214848615e-05,0.0003669800521479235,-0.0001124313120258664,-5.409116007478583e-06,1.226191755769538e-15,4.3178875822356055e-17,0.0,-0.00019675136005267423,0.0007943772725813155,2.1992204632512385e-14
29.852610309691077,1.0406958691313473,29.28501181208692,0.24374648232850563,-0.16383380214960208,3.7160909602052816e-11,1.3072756781076931e-12,-0.00011168473741704691,0.00041285255866641387,-0.00012648522602909967,-6.085255508413794e-06,1.3802625526215751e-15,4.855602376910092e-17,0.0,-0.00022134528005926033,0.00089367443165398,2.4981138623036598e-14
33.169567010767864,1.1563287434792755,32.53890201342991,0.2708294248094503,-0.18203755794400428,4.131440781752281e-11,1.4523429626553265e-12,-0.00012409415268560764,0.00045872506518490435,-0.00014053914003233297,-6.7613950093487296e-06,1.5345350446330943e-15,5.394411973182318e-17,0.0,-0.0002459392000658452,0.0009929715907266443,2.7977153709807374e-14
36.48652371184465,1.2719616178272026,35.7927922147729,0.29791236729039566,-0.20024131373840995,4.546262228149058e-11,1.5968874069161645e-12,-0.0001365035679541684,0.0005045975717033947,-0.00015459305403556627,-7.437534510283796e-06,1.6886112829013044e-15,5.931292700784024e-17,0.0,-0.0002705331200724311,0.001092268749799309,3.0916545057120036e-14
39.80348041292143,1.3875944921751304,39.046682416115885,0.3249953097713409,-0.21844506953281423,4.959814742098452e-11,1.742285668867375e-12,-0.00014891298322272919,0.0005504700782218851,-0.00016864696803879954,-8.113674011218815e-06,1.8422168386705433e-15,6.471344753749102e-17,0.0,-0.00029512704007901694,0.0011915659088719737,3.38596148017657e-14
43.12043711399822,1.5032273665230587,42.30057261745888,0.3520782522522866,-0.23664882532721762,5.375590710982582e-11,1.886639921848043e-12,-0.00016132239849128992,0.0005963425847403756,-0.0001827008820420328,-8.7898135121538e-06,1.9966480386537775e-15,7.007515263177386e-17,0.0,-0.0003197209600856027,0.0012908630679446384,3.6923176364059344e-14
46.43739381507501,1.6188602408709867,45.554462818801866,0.3791611947332312,-0.2548525811216269,5.7901042852445845e-11,2.032154824545295e-12,-0.00017373181375985068,0.0006422150912588659,-0.00019675479604526613,-9.465953013089002e-06,2.1506109140850486e-15,7.548005463507234e-17,0.0,-0.00034431488009218915,0.0013901602270173028,3.989470761737882e-14
49.75435051615179,1.7344931152189142,48.808353020144864,0.4062441372141771,-0.27305633691602654,6.205341775066733e-11,2.176699826007149e-12,-0.00018614122902841144,0.0006880875977773562,-0.0002108087100484994,-1.0142092514023844e-05,2.304841507192035e-15,8.084865218984107e-17,0.0,-0.00036890880009877406,0.0014894573860899677,4.290833148964675e-14
53.07130721722857,1.850125989566842,52.06224322148785,0.4333270796951224,-0.291260092710434,6.619177198545379e-11,2.3216868736084607e-12,-0.00019855064429697217,0.0007339601042958467,-0.00022486262405173267,-1.0818232014958978e-05,2.4585519009128755e-15,8.62340161081931e-17,0.0,-0.0003935027201053606,0.0015887545451626322,4.5876524615524584e-14
56.38826391830535,1.96575886391477,55.31613342283083,0.460410022176068,-0.30946384850483977,7.03458348312868e-11,2.465782585317648e-12,-0.00021096005956553295,0.000779832610814337,-0.000238916538054966,-1.1494371515894046e-05,2.6128450703058524e-15,9.158613070647087e-17,0.0,-0.0004180966401119469,0.0016880517042352967,4.8946771864489546e-14
59.70522061938215,2.0813917382626976,58.57002362417383,0.4874929646570127,-0.32766760429924485,7.449971342931714e-11,2.611090209236902e-12,-0.0002233694748340937,0.0008257051173328275,-0.0002529704520581993,-1.2170511016829096e-05,2.7671320727604997e-15,9.698329002800641e-17,0.0,-0.0004426905601185324,0.0017873488633079616,5.1933489022064846e-14
63.02217732045893,2.1970246126106256,61.823913825516826,0.5145759071379581,-0.3458713600936515,7.863982693344517e-11,2.7557871408424857e-12,-0.00023577889010265444,0.0008715776238513179,-0.00026702436606143256,-1.2846650517764198e-05,2.920907944855956e-15,1.0235781079100521e-16,0.0,-0.00046728448012511826,0.0018866460223806256,5.487740182345626e-14
66.3391340215357,2.3126574869585537,65.07780402685981,0.5416588496189033,-0.3640751158880547,8.27926891968221e-11,2.900941163014962e-12,-0.0002481883053712152,0.0009174501303698084,-0.00028107828006466583,-1.3522790018699174e-05,3.075156857397392e-15,1.0774919994414055e-16,0.0,-0.0004918784001317036,0.0019859431814532908,5.791272243581164e-14
69.65609072261249,2.4282903613064803,68.33169422820279,0.5687417920998484,-0.38227887168245794,8.693727813951163e-11,3.045353736368651e-12,-0.000260597720639776,0.0009633226368882987,-0.0002951321940678991,-1.419892951963415e-05,3.2290992368277443e-15,1.1311278119337472e-16,0.0,-0.0005164723201382897,0.002085240340525955,6.090144130901647e-14
72.97304742368928,2.5439232356544097,71.58558442954578,0.5958247345807938,-0.40048262747686536,9.109005719420348e-11,3.1904486952334186e-12,-0.0002730071359083367,0.001009195143406789,-0.0003091861080711324,-1.4875069020569281e-05,3.383344521758398e-15,1.1850217516057994e-16,0.0,-0.0005410662401448763,0.0021845374995986197,6.391589735519781e-14
76.29000412476607,2.659556110002337,74.83947463088877,0.622907677061739,-0.4186863832712689,9.523647672796465e-11,3.335108480104594e-12,-0.00028541655117689745,0.0010550676499252796,-0.00032324002207436575,-1.5551208521504277e-05,3.5373547375103752e-15,1.2387551695007456e-16,0.0,-0.0005656601601514616,0.002283834658671284,6.6884217447453e-14
79.60696082584285,2.775188984350264,78.09336483223174,0.6499906195426841,-0.4368901390656732,9.939055146075266e-11,3.4803128361021934e-12,-0.0002978259664454582,0.0011009401564437702,-0.000337293936077599,-1.6227348022439286e-05,3.691649357947665e-15,1.29268753917452e-16,0.0,-0.0005902540801580474,0.0023831318177439486,6.988010012643024e-14
82.92391752691964,2.890821858698191,81.34725503357475,0.67707356202363,-0.45509389486007773,1.0353887290731554e-10,3.625030569879046e-12,-0.00031023538171401897,0.0011468126629622605,-0.0003513478500808323,-1.6903487523374312e-05,3.8457303121098915e-15,1.3464396619375615e-16,0.0,-0.0006148480001646333,0.0024824289768166133,7.28135893510005e-14
86.24087422799643,3.0064547330461195,84.60114523491774,0.7041565045045746,-0.47329765065448165,1.0768073973730764e-10,3.770030990304744e-12,-0.0003226447969825797,0.0011926851694807508,-0.0003654017640840656,-1.757962702430932e-05,3.999569667394034e-15,1.4002967586876082e-16,0.0,-0.0006394419201712202,0.0025817261358892776,7.57445798772641e-14
89.5578309290732,3.1220876073940476,87.85503543626072,0.7312394469855202,-0.4915014064488887,1.1182720681888884e-10,3.914848648797154e-12,-0.0003350542122511405,0.0012385576759992411,-0.0003794556780872988,-1.8255766525244435e-05,4.153580971429245e-15,1.4540875381780457e-16,0.0,-0.0006640358401778062,0.0026810232949619423,7.873976750601548e-14
92.87478763015,3.2377204817419742,91.10892563760372,0.7583223894664649,-0.509705162243297,1.1597028611829203e-10,4.059985769205475e-12,-0.00034746362751970124,0.0012844301825177314,-0.0003935095920905321,-1.8931906026179597e-05,4.307468573936789e-15,1.5079936076736503e-16,0.0,-0.0006886297601843923,0.002780320454034607,8.175797450174546e-14
96.19174433122679,3.353353356089903,94.3628158389467,0.7854053319474107,-0.5279089180376971,1.2012910374612928e-10,4.204082781050367e-12,-0.000359873042788262,0.0013303026890362217,-0.00040756350609376537,-1.9608045527114457e-05,4.461938407974852e-15,1.561514356886499e-16,0.0,-0.0007132236801909781,0.0028796176131072712,8.480865151606342e-14
99.50870103230356,3.4689862304378307,97.6167060402897,0.8124882744283558,-0.5461126738321019,1.2427563026248556e-10,4.349444639201857e-12,-0.00037228245805682276,0.001376175195554712,-0.0004216174200969987,-2.028418502804951e-05,4.615952251337611e-15,1.6155097562976115e-16,0.0,-0.0007378176001975637,0.002978914772179936,8.776814925889666e-14
102.82565773338034,3.584619104785759,100.87059624163268,0.8395712169093014,-0.5643164296265077,1.2842203790929172e-10,4.494192090366236e-12,-0.00038469187332538347,0.0014220477020732026,-0.000435671334100232,-2.0960324528984577e-05,4.769961378806353e-15,1.6692682273795214e-16,0.0,-0.0007624115202041498,0.0030782119312526006,9.074587211829895e-14
106.14261443445714,3.7002519791336863,104.12448644297568,0.8666541593902465,-0.5825201854209148,1.3257129842530042e-10,4.639050238799151e-12,-0.0003971012885939443,0.0014679202085916931,-0.00044972524810346523,-2.163646402991969e-05,4.924076069748853e-15,1.723073744038761e-16,0.0,-0.0007870054402107362,0.0031775090903252653,9.375589377306031e-14
109.45957098835093,3.815884894820496,107.37837654775241,0.8937371570985554,-0.6007239196697265,1.4323597728695776e-10,-1.536714934864428e-11,-0.0004095107038625051,0.0015137927151101834,-0.00046377916210669866,-2.2312603530854663e-05,5.077962221212084e-15,1.7768997793714866e-16,2.222429213272833e-12,-0.0008115993856946402,0.00327680624786976,-1.1203563055210792e-13
112.772604056231,3.9316593641602355,110.62818983173594,0.9208330816599086,-0.6188239218180985,-4.987619502516415e-07,3.833762255432688e-08,-0.0004219124195907272,0.0015596340614114693,-0.0004778320288061356,-2.2996920902420514e-05,1.4003944059891174e-12,2.509760058124936e-11,3.4394870752308336e-08,-0.0008363821289096652,0.003376092169412781,3.2309955559203665e-09
116.0731522317663,4.047315504343178,113.8648887502757,0.9477458473889914,-0.6369453878926425,-6.17777101827337e-08,2.9261406148008667e-07,-0.0004342882685894483,0.0016053617852612972,-0.0004918738018032325,-2.373142568406389e-05,2.9966485113623074e-11,7.023481026875475e-11,1.6005151460868523e-07,-0.0008616852273660637,0.003475386334504761,6.919480870593761e-09
119.36512269747075,4.162980042096276,117.09302603474246,0.9749639705179566,-0.6546656079407526,1.5760974902066653e-08,-5.3730024784591625e-09,-0.0004466511131541139,0.0016510221146599172,-0.0005059083155209076,-2.4490778008323043e-05,3.835480453370698e-11,7.857872354492573e-11,3.568909085174798e-07,-0.0008872308433289072,0.0035746891201289994,7.852266043909321e-09
122.64725842864296,4.278618800130759,120.31083496786596,1.0022706344266628,-0.672336964326342,1.1602293146166738e-06,1.2163746865636555e-06,-0.0004589983471439584,0.0016966013921432496,-0.0005199360484140158,-2.5245201312299384e-05,2.8073583401580904e-11,1.8741286031887104e-10,6.364043304800226e-07,-0.0009129619385345155,0.0036739935592335436,1.382798162176161e-08
125.91904155623692,4.394596773244527,123.51871015243863,1.030128880713532,-0.6904667700790779,7.148726293270765e-07,1.155187466189744e-06,-0.0004713316214719292,0.0017421092847381876,-0.0005339580300868487,-2.5988689229904414e-05,1.2513194613314194e-11,2.2195775930898123e-10,1.0094780034987431e-06,-0.0009388411871172567,0.003773301953487296,1.5069960073631098e-08
129.1822843252204,4.510492580794517,126.7177111712673,1.0578727896721025,-0.7085718263360352,2.002999769134082e-06,2.0708766995083136e-06,-0.00048364808389781495,0.001787542138760069,-0.000547973617480918,-2.674065583205332e-05,4.587838244487454e-11,3.118245810103948e-10,1.4464485141070106e-06,-0.000965034289013701,0.003872603906421142,2.517799718363619e-08
132.43558956301817,4.626511908689272,129.90707822922514,1.0860298449020087,-0.7260398986301198,-6.442844519582842e-07,3.457093996606664e-06,-0.0004959492537957073,0.0018329023672384146,-0.0005619838563980417,-2.752602794050651e-05,8.384206118724109e-11,4.540789218210406e-10,1.9708196750636505e-06,-0.000991587895691094,0.003971913388818286,3.0824991522491625e-08
135.68082293336354,4.742470372432078,133.08771682681203,1.114047372227879,-0.7437734369689645,-8.330109163085468e-07,3.916585850023094e-06,-0.0005082305951033127,0.0018781843014678444,-0.000575986651670406,-2.834968887118265e-05,9.104721141433208e-11,5.287073608859842e-10,2.554006572485833e-06,-0.0010185491423366055,0.004071218014645301,3.4576809646715394e-08
138.9135487806063,4.858364283860284,136.2560568326551,1.1420681206568095,-0.7613303252150135,-2.9496438707746826e-06,4.2881337423945686e-06,-0.0005204855405305554,0.001923359116728077,-0.0005899793519851088,-2.9233494950975797e-05,-8.941248438628894e-11,6.010989576946464e-10,3.228194642867809e-06,-0.0010461038236500941,0.004170525245026427,2.3983810004953598e-08
142.13522242110182,4.973869051120513,139.41358272519943,1.1700875318734834,-0.778343682166697,-7.735265228466868e-07,6.061382127211258e-06,-0.0005327227186981062,0.0019684436855379123,-0.0006039635993644151,-3.015205729678998e-05,5.7675497301298916e-11,7.408082639953822e-10,3.9859552959434835e-06,-0.0010741056939024668,0.004269820287840666,4.119945945075312e-08
145.34979629036286,5.089247813526269,142.56368500532363,1.1981053393744228,-0.795355617717285,-2.075119803465078e-07,7.069569776286754e-06,-0.0005449474208232394,0.002013467685430927,-0.0006179429037035484,-3.1083419874476774e-05,8.231830945145235e-11,8.601175763456325e-10,4.8007009810605126e-06,-0.0011023549640001473,0.0043691137207452465,4.8192610815062775e-08
148.55128207054258,5.2040566226580784,145.6999918422599,1.2257897789788508,-0.8125504612802551,7.690465598248226e-07,9.126221282067431e-06,-0.0005571515259363614,0.0020583770886034754,-0.0006319122012734181,-3.204776947588079e-05,1.0344506203855212e-10,1.0569687875400483e-09,5.7147241274378284e-06,-0.0011309971217727637,0.004468421087816338,5.464840542327915e-08
151.73730155427427,5.31859393530019,148.82067407954216,1.2535240934277292,-0.8295910273498246,2.9674884078521837e-06,8.15234786635384e-06,-0.0005693322007668756,0.0021031642496897283,-0.000645873236875595,-3.306359829437846e-05,1.8287414815553025e-10,1.21621281192676e-09,6.756317335653182e-06,-0.0011602316144456526,0.004567722228343674,6.763316508908924e-08
154.9082711824268,5.4322483431813895,151.92560433987856,1.2808364654348297,-0.8467436983229134,5.6249457078279536e-06,1.1964347625076944e-05,-0.0005814911289561075,0.0021478222193524158,-0.0006598242952620524,-3.413899570791047e-05,2.513234422021938e-10,1.554679153198771e-09,7.91324748041982e-06,-0.00119009432359783,0.004667023233456132,8.464285440411608e-08
158.06637265030668,5.545433819628454,155.01700609582215,1.3078541028115238,-0.8641271247972466,8.382419230496572e-06,1.3992032580206144e-05,-0.0005936278043520557,0.0021923685617295055,-0.0006737676487016663,-3.526112310202641e-05,3.3330050913309106e-10,1.8276026215424762e-09,9.170336723225004e-06,-0.0012204398409001763,0.004766332222058868,9.727715631446257e-08
161.2038110468893,5.658528985502725,158.08737282162917,1.3346460445268913,-0.8822653671417094,6.249054544281838e-06,1.3196288144231322e-05,-0.0006057235128087272,0.002236744532220726,-0.0006877036031168055,-3.6431231286215464e-05,4.499405510672029e-10,1.9469784803769575e-09,1.0593397586195949e-05,-0.0012514313634686425,0.004865653576045308,1.0582823312059508e-07
164.32348403206868,5.771249506314369,161.13947776753668,1.3613104772143847,-0.900424178442197,1.4912597821433875e-05,1.4740196040638651e-05,-0.0006177886483493962,0.002280975955678151,-0.0007016328058940948,-3.762239369188817e-05,7.458785076850606e-10,2.4092962413019402e-09,1.2162816562448512e-05,-0.0012828440436590694,0.004964983567030133,1.3062908753430361e-07
167.42417399221975,5.883145437353512,164.171763732746,1.3874626629808322,-0.9186380063649715,1.7416926477105325e-05,1.5559991453548768e-05,-0.0006298214792461704,0.0023250437164523685,-0.0007155515410171673,-3.8849753667751824e-05,7.782527210621319e-10,2.6550592213384973e-09,1.387696141959802e-05,-0.0013147645168048612,0.005064339895874911,1.434445976530258e-07
170.50769650067036,5.994628242291877,167.18634211842524,1.413350479933654,-0.9370050387127651,2.1607647194696274e-05,1.8231071968295695e-05,-0.000641823478313301,0.0023689693620234675,-0.0007294640503350194,-4.014014812723695e-05,9.109370496898752e-10,3.0833177444512805e-09,1.572875430511992e-05,-0.001347331199077896,0.005163703757988605,1.6830141380217745e-07
173.57752125197555,6.105687912369544,170.1866749831605,1.4390549830876238,-0.9555373105119084,2.0083227335160625e-05,1.614557033619419e-05,-0.0006538021066696555,0.0024127818366529875,-0.0007433716278198027,-4.149739649490439e-05,9.044209427663839e-10,3.1627347548773197e-09,1.769484253541763e-05,-0.0013805462207812339,0.005263056228876332,1.605368589848739e-07
176.62902892281562,6.216279338933456,173.16876684348927,1.4646891038544938,-0.9748742497492775,2.6626692591362478e-05,1.3848940351876531e-05,-0.0006657536536830873,0.0024564525835199923,-0.0007572718710581783,-4.286770434734622e-05,1.2723530052578133e-09,3.774814587400846e-09,1.981251542299184e-05,-0.0014142479050880826,0.005362419054693411,1.9852555560889997e-07
179.66412498410205,6.326374676719985,176.13405586160053,1.489959181857636,-0.9946164925168249,2.8662632602409107e-05,1.369788735783645e-05,-0.0006776778130047158,0.002499991311850057,-0.0007711684147300371,-4.4258362431144946e-05,1.2677855474247074e-09,4.0728937520152315e-09,2.2065157438100588e-05,-0.0014484019643826427,0.00546177932462015,2.0860575660553292e-07
182.68171293045108,6.435836706841801,179.08128471244626,1.5147979172406374,-1.0145660553306837,2.8329217433486146e-05,1.4828998954342038e-05,-0.0006895719932961862,0.0025433895178952988,-0.0007850636998189477,-4.571216852009586e-05,1.290314521126599e-09,4.515808177656834e-09,2.446350375537007e-05,-0.001483243649039954,0.005561130533017487,2.3704235456624168e-07
185.6706994876461,6.544150885274586,181.99942525908972,1.5393664636311297,-1.0345566706937852,2.8509761414358786e-05,2.0966185834904274e-05,-0.0007014288634932296,0.0025865750305432192,-0.0007989579235757291,-4.724374262588034e-05,9.528575181710574e-10,5.274141268739718e-09,2.7112360287410817e-05,-0.001519127176555762,0.005660459681421082,2.9271311990936855e-07
188.63508685231454,6.6515261614530745,184.89260123262184,1.5638786242537766,-1.0548644833739975,3.152292282388758e-05,1.2274781397740136e-05,-0.0007132582304874256,0.0026295854859351123,-0.0008128529353429505,-4.8828554854606e-05,9.996386711660254e-10,5.120433141839442e-09,2.9986152442844146e-05,-0.0015556848441056733,0.00575980524812949,2.593835181643655e-07
191.57469297652509,6.757883356222883,187.76024587602197,1.5878080390705043,-1.0755539553406879,3.406017400391758e-05,1.3286999089951401e-05,-0.000725051481853544,0.0026724056436941207,-0.0008267488060044881,-5.049814060556257e-05,9.233608133536424e-10,5.5135281470725705e-09,3.307461282906397e-05,-0.0015930766919804234,0.005859148236857188,2.7474184998629323e-07
194.49026674538874,6.863458978803427,190.60363376976505,1.611809646707006,-1.0962939704661494,3.722377820235815e-05,1.3647030500538398e-05,-0.0007368170463163676,0.002715058298823252,-0.0008406475245338808,-5.2222788435090763e-05,9.253467103017143e-10,5.840722927614475e-09,3.638530699049841e-05,-0.0016311404996534847,0.005958508076322657,2.8877500975215183e-07
197.38240282933168,6.968203245399651,193.42339685255297,1.6356807837448106,-1.1170907631314277,3.877710202561201e-05,1.0915033645768102e-05,-0.0007485578834304278,0.002757547209617477,-0.0008545477211487774,-5.401865214360804e-05,7.054404818672352e-10,6.162070720292102e-09,3.9912818765936194e-05,-0.0016698880809915993,0.0060578763556657905,2.949037751496605e-07
200.24005010164393,7.071658792549444,196.20841153612307,1.659086174168699,-1.13779036269683,4.050796340254507e-05,1.058743240738684e-05,-0.0007602670972919117,0.0027998041384630795,-0.0008684561468692171,-5.592281081765338e-05,6.364627921097769e-10,6.4784682804949535e-09,4.3767610395993966e-05,-0.001709665097980118,0.006157255292804618,3.0754331971287885e-07
203.0616910695491,7.17458641074395,198.95836232753652,1.6826749274412676,-1.1579409829922322,4.30783726635889e-05,9.36568008307454e-06,-0.0007719568165701564,0.0028418581947855536,-0.0008823835286969867,-5.798693089297741e-05,5.436300271770937e-10,6.790134118840229e-09,4.799969365008005e-05,-0.0017506442204078651,0.006256637109528561,3.139958138666353e-07
205.80311020515575,7.275237652510137,201.6298821576127,1.7060636869979229,-1.1780823364995021,4.5912915574833976e-05,5.448183443304557e-06,-0.0007836354953701069,0.0028834704098688493,-0.0008963424373723375,-6.038590265588615e-05,5.729460120179362e-10,7.037135038816264e-09,5.307500979314216e-05,-0.0017938806644235677,0.006356060361274513,3.2017496462009635e-07
208.48778022152638,7.373310657464566,204.24485368513388,1.7283752770420098,-1.1985868572066127,4.752721467496252e-05,4.257867824001476e-06,-0.0007953034379234909,0.0029247639957630605,-0.0009103374742987662,-6.301600213260957e-05,4.9909601128098e-10,7.491518758773608e-09,5.875308653203439e-05,-0.0018388793957408226,0.006455474358177222,3.2837296687040357e-07
211.15002617444168,7.469886364897884,206.83648634636438,1.7498887047502856,-1.2190182371496014,5.475615197298741e-05,-2.450667319459508e-06,-0.0008069634366541542,0.0029659266670669458,-0.0009243560223212905,-6.567883248309279e-05,2.8591838464382567e-10,7.654428061644721e-09,6.466843853692377e-05,-0.0018843896294096247,0.006554867977203963,3.2001444335048173e-07
213.726069400174,7.56383559536418,209.34306126151682,1.7707002667408485,-1.2393853297491757,4.84191792187119e-05,3.1900368239791826e-06,-0.0008185851623124753,0.0030065897322433107,-0.0009384183006529954,-6.866618396700202e-05,8.535177867172565e-10,8.293521303634575e-09,7.147458983694697e-05,-0.0019323667504799226,0.006654308990829082,3.5906170694709616e-07
216.28807497641316,7.65770371695595,211.8358160354876,1.7919977915206649,-1.2590172301481801,5.9696157991398826e-05,-5.161485209139452e-06,-0.0008302277103715083,0.003047220539380217,-0.0009525041573289124,-7.164012880988725e-05,7.02400581777892e-10,8.511573490354857e-09,7.84792099359556e-05,-0.001980368385574079,0.006753763998282835,3.269364529044598e-07
218.7800430963577,7.7492642271112055,214.26021202746142,1.8134322041377045,-1.277965402848605,6.32789514662593e-05,-6.7690051906782145e-06,-0.000841862682092789,0.003087486473398248,-0.0009666357429699708,-7.49086098593558e-05,7.582735388895517e-10,8.854870251676864e-09,8.625425445076958e-05,-0.00203062856856514,0.006853223357784749,3.261760694762762e-07
221.25658397235017,7.8392954249383,216.66770180622578,1.8341775224293375,-1.2968893673011141,6.310529396494668e-05,-1.6313570098314752e-05,-0.000853516080113381,0.003127668469568476,-0.000980774248005989,-7.813230724939553e-05,5.952191324353838e-10,8.908111000839481e-09,9.420618150954227e-05,-0.0020808876233355295,0.0069526792550479895,2.9763882217455483e-07
223.65631668557148,7.926566225313944,218.99901683336336,1.854686693683058,-1.3157080760070374,5.805740141669466e-05,-2.155202028717752e-05,-0.0008651677438693674,0.0031674719243084833,-0.0009949883532827707,-8.170956435691363e-05,4.536426782993244e-10,9.422369166360608e-09,0.00010304321857566562,-0.002133592727882635,0.007052118012778337,3.149589051953212e-07
226.02492869903415,8.01267370978039,221.29929183004376,1.8751037746957604,-1.3338883496466507,6.876878478802348e-05,-2.3186956086744915e-05,-0.0008768558310504701,0.003207146536748791,-0.001009221738186777,-8.520071989008606e-05,6.444350864362573e-10,9.643976937302614e-09,0.00011225354537328485,-0.002186161555896848,0.0071516056751322055,2.936456611858481e-07
228.33659221238548,8.097300342801852,223.54327010985415,1.8956816362847864,-1.3519618028335076,7.212144272191286e-05,-2.836495199962272e-05,-0.0008885266512497286,0.003246545727032678,-0.001023526206703286,-8.906868608366496e-05,5.565042078815594e-10,9.95162550792843e-09,0.00012213972129376704,-0.002241090534369414,0.007251059409318608,2.7048351620134044e-07
230.57011186649592,8.179051096992795,225.70975597987805,1.9157319842358034,-1.369064182680076,7.444918566217539e-05,-3.3411046906879994e-05,-0.0009002560523348076,0.003285551382157586,-0.0010378408209021685,-9.285517211878356e-05,6.243186826407817e-10,1.0279656056327345e-08,0.00013288044311108544,-0.0022966362931919264,0.007350588477639738,2.672012624682103e-07
232.83833046432414,8.261315004481878,227.90815664760734,1.9357449706438834,-1.3867706174455459,7.645814276966999e-05,-3.838920384341399e-05,-0.0009119675848712072,0.0033247764865359008,-0.001052207663820504,-9.683055755804329e-05,3.877620122387461e-10,1.066682306434425e-08,0.00014333884739699891,-0.0023525591964081672,0.007450060594260651,2.2526516989796332e-07
234.86094594538204,8.33589521363884,229.86612239721106,1.95453306834632,-1.402450952102599,8.354433672994795e-05,-4.9680800205656923e-05,-0.0009237273398179853,0.0033627405869654653,-0.0010666901004092162,-0.00010116177422312261,7.987223550965922e-10,1.0880444285937491e-08,0.00015646872752249867,-0.0024132403562859878,0.0075495913983881285,2.2835107900398338e-07
237.09606200731136,8.41673691332552,232.0299984917631,1.9748117937340186,-1.4192332294184913,9.017138891957684e-05,-5.945300733835327e-05,-0.0009354795491619578,0.0034018561477931197,-0.001081110614637888,-0.00010510699538027075,9.515634791419066e-10,1.1239697473834414e-08,0.00016739226634156755,-0.002469519585196218,0.00764903291824821,1.8626472794640142e-07
238.90566609574066,8.483457672099641,233.77745584712406,1.9919411588437654,-1.4331541601711237,8.572089667775731e-05,-6.339834984451648e-05,-0.000947379780058907,0.003438832856568468,-0.0010957224783491753,-0.00010981219668849614,7.594622699165321e-10,1.1764881350946185e-08,0.00018298976115426128,-0.002534366072113028,0.007748685018243422,2.061392031367072e-07
241.21964162421702,8.566259916843038,236.0155752842864,2.012955375017029,-1.4497512724289614,9.111969062083846e-05,-6.57383373761259e-05,-0.0009591550824168448,0.003478366028643982,-0.0011100978572205847,-0.00011352346952707198,5.859566656572184e-10,1.2032710287321078e-08,0.00019311068085224795,-0.002588831782367222,0.00784806618902539,1.857613626838469e-07
242.6444637364023,8.619678775083143,237.38209677279497,2.026572681407323,-1.462655154609204,8.911789204923905e-05,-7.926821753429811e-05,-0.0009711560363059693,0.0035135022656086275,-0.0011250413822781696,-0.0001191839320277119,6.299804272686746e-10,1.2743200326817248e-08,0.00021313662888716446,-0.002662601903137762,0.007947788727257769,1.7462892385538102e-07
245.08980005718357,8.705062675943772,239.74830146511337,2.0477233693345958,-1.4789861373235853,9.31855276142322e-05,-7.946035493021661e-05,-0.000983035000551011,0.0035538109181502005,-0.0011393411318255217,-0.00012243242233037936,5.241893165957932e-10,1.3086921965738427e-08,0.0002219346602911943,-0.0027132787437799994,0.008047137510177674,1.6524020336040774e-07
246.29575749787446,8.751637426613627,240.89562005872116,2.060607133597116,-1.4906837137315274,9.328837460204946e-05,-9.409238889551049e-05,-0.00099516941736914,0.003587941289058758,-0.001154441216724293,-0.0001283103526117506,4.083750229097492e-10,1.3791979165787413e-08,0.0002445634243314182,-0.00279078360000745,0.008146986459911331,1.5328823106546777e-07
248.66851860345287,8.83372793461279,243.18730081023904,2.081317074532402,-1.5070030813555555,9.413187416886601e-05,-9.538099731074873e-05,-0.001007078174704185,0.003627908602427671,-0.0011688170230412906,-0.00013183884896022672,2.2505410934198795e-10,1.4029046166528961e-08,0.00025424923185122383,-0.0028436047725689676,0.00824625698222307,1.2770579511593596e-07
249.75677120026523,8.874897681046358,244.21564926369277,2.0922882984094717,-1.517058940831325,9.018596149062428e-05,-0.00010822418665692162,-0.0010194184621683236,0.003661594379483026,-0.0011839882873538547,-0.00013763777277645638,2.506521730465522e-10,1.4949856905566612e-08,0.00027837939733961665,-0.0029223560202491896,0.008346158188089127,1.3265590965898158e-07
252.06009455127122,8.954761634786857,246.43620008964498,2.112948313539218,-1.5329497519225368,9.685123015172168e-05,-0.00011042194879504735,-0.0010313317437769987,0.003701226359321157,-0.0011984437010414677,-0.00014135718927805625,2.2732589827692965e-10,1.530788145600033e-08,0.0002889108518573041,-0.002977035703226188,0.008445440829332754,9.398886630153351e-08
253.01380703094404,8.9901785803474,247.33000927334726,2.1226917008129904,-1.5406521839419989,9.206245491550678e-05,-0.00012431975361509246,-0.0010439079430397359,0.00373444060470704,-0.001213716207070119,-0.0001470896349701038,8.94447274390552e-11,1.624191980269225e-08,0.000314791602442103,-0.0030572957554407514,0.008545358764046272,9.456394649228907e-08
255.25101747085367,9.067557977388361,249.48263450134914,2.1430230871795386,-1.5568258569078532,0.00010252314521195763,-0.0001242972083497737,-0.0010558413393272224,0.0037737500347262373,-0.0012282331778794907,-0.00015098819929241876,8.284927750032705e-11,1.6802317547553496e-08,0.0003261192957342856,-0.0031135247828604383,0.008644758826687022,8.099858925073769e-08
256.0968718367648,9.098272363354855,250.2682832430973,2.1514442700578353,-1.5633056068168203,9.487896789951154e-05,-0.0001401673358903079,-0.0010686540570686257,0.0038066207562900524,-0.0012435781284985145,-0.0001565426167219264,-1.9938868381599588e-11,1.7813496863476776e-08,0.00035344098401216814,-0.0031945159798394494,0.008744596705313362,7.474938097438379e-08
258.2201442233531,9.172921922611208,252.3064398954849,2.171804301112064,-1.5789570658917464,0.00010988107286815586,-0.00014089999198340687,-0.0010805864137219897,0.0038453915639763366,-0.0012582270581445885,-0.0001607315305151126,1.8062429846282917e-10,1.85157418866727e-08,0.0003661319999206879,-0.0032536216802286156,0.008844077977066891,3.955210328919972e-08
258.9858066643231,9.199239958884213,253.0122706474576,2.1794423584934406,-1.5836960120686203,9.42238150229306e-05,-0.0001540415053783582,-0.001093673153784712,0.0038780900251110697,-0.0012736114258130172,-0.00016594252187932256,-2.9400277426127056e-10,1.9677676517641837e-08,0.0003945980596267767,-0.0033341044049429577,0.008943821676703692,6.111089929372244e-08
260.9914771564567,9.269327150095275,254.93040975777157,2.1980911375984578,-1.599381574870487,0.0001015395377083922,-0.00015784863117780562,-0.0011055963136354626,0.003916246842149535,-0.0012883772253971311,-0.0001705135915840693,-6.053067408888183e-10,2.0237611322239044e-08,0.00040864460051719684,-0.003396362430947055,0.009043481296551083,1.4759872376592313e-08
261.7451543013602,9.295753439441736,255.62468385561752,2.206402242650055,-1.6030448297238251,8.681587173765956e-05,-0.0001726279484896046,-0.0011188827742723182,0.003949093716346071,-0.0013037718590011322,-0.0001753675812945592,-1.0353264087005951e-09,2.1445148274049108e-08,0.00043747712583522703,-0.0034756290884070296,0.009143135005384285,1.5623352050432438e-08
263.5888786956208,9.360199402308671,257.3805403454027,2.2239247478592965,-1.6176156816587275,9.123083835908617e-05,-0.00017345754573760237,-0.001130864495608566,0.003986514365269367,-0.0013187089296861155,-0.00018025293500467345,-6.999718397932485e-10,2.254538852277328e-08,0.00045346901343225224,-0.003541350317068887,0.009242868043741699,3.608639915700556e-08
264.34911466886837,9.388322813068225,258.0819656569028,2.233074187388372,-1.621462234731027,9.280305258017357e-05,-0.00018171233495552653,-0.001144314451445928,0.004019553658428342,-0.001334077134654648,-0.00018475385337043558,-1.206043234508456e-09,2.372523565596841e-08,0.00048240606657065513,-0.0036192737278511957,0.009342510962563765,-3.3528119560986524e-09
266.0887504749541,9.448423618114354,259.73246497792815,2.2493704740898117,-1.6352683001654005,0.00010096611911328572,-0.00018434982510117428,-0.0011563601487930325,0.004056526915886107,-0.0013491367152637474,-0.0001897185688796291,-1.1811134936699211e-09,2.4713051369343314e-08,0.0004996865684585354,-0.003686615013926124,0.00944225678668723,-3.3424873328131695e-08
266.8159999672569,9.475162669638049,260.40061228840705,2.2583165190458185,-1.6383591923353549,9.415626569202388e-05,-0.00019484764974111158,-0.0011699654911999442,0.004089533479137032,-0.0013645160366394264,-0.0001940856177872042,-1.7655097198215333e-09,2.6049263520740267e-08,0.0005291526075203347,-0.0037645074481210106,0.009541934422965047,-1.2723792545960339e-08
268.47669598748456,9.531773537822993,261.9709597102963,2.27372400166504,-1.6515182527755283,9.5110204454285e-05,-0.00019949741965651115,-0.0011820954795748989,0.004126199124131196,-0.0013796667459861024,-0.00019902306133113607,-1.6795890047544725e-09,2.715153289423022e-08,0.0005474477911973762,-0.0038326781102730177,0.009641684179841976,-3.612117552618827e-08
269.13090584235584,9.556152010971669,262.5667505090713,2.282162085702463,-1.6538957248785764,8.935171998207681e-05,-0.000205631127258181,-0.0011958540779038141,0.004158979106190657,-0.001395096087682585,-0.00020328425342645108,-2.3117280139778196e-09,2.889356993128179e-08,0.00057789295780034,-0.003911219869131785,0.009741367335271735,-4.463810215165022e-09
270.7488677249624,9.61173680998905,264.09333334982045,2.297803236979726,-1.6670538891734736,9.24000913409039e-05,-0.00020945829447393077,-0.0012080190378898647,0.004195500594008924,-0.0014103222795659818,-0.00020818199784754035,-2.4105537967184923e-09,2.990409297615255e-08,0.0005967836864227669,-0.0039798282977971545,0.00984109829538634,-2.7322429375089422e-09
271.31283192482715,9.632945307264302,264.5991475753338,2.3053174530814187,-1.6684152327079704,7.398976984158238e-05,-0.000203354148181829,-0.0012219435852969225,0.0042279672514723005,-0.001425809892828642,-0.0002123218051746339,-2.6973171245759527e-09,3.277095028232543e-08,0.000628402463353439,-0.004059201454800766,0.009940783995355282,7.150225823865493e-08
