Block Name,Row ID,N,Time,avg(VonMises),avg(X),avg(Y),avg(Z),avg(dx),avg(dy),avg(dz),avg(e11),avg(e12),avg(e22),avg(e23),avg(e31),avg(e33),avg(lambda),avg(s11),avg(s12),avg(s22),avg(s23),avg(s31),avg(s33),avg(vtkOriginalPointIds),max(VonMises),max(X),max(Y),max(Z),max(dx),max(dy),max(dz),max(e11),max(e12),max(e22),max(e23),max(e31),max(e33),max(lambda),max(s11),max(s12),max(s22),max(s23),max(s31),max(s33),max(vtkOriginalPointIds),med(VonMises),med(X),med(Y),med(Z),med(dx),med(dy),med(dz),med(e11),med(e12),med(e22),med(e23),med(e31),med(e33),med(lambda),med(s11),med(s12),med(s22),med(s23),med(s31),med(s33),med(vtkOriginalPointIds),min(VonMises),min(X),min(Y),min(Z),min(dx),min(dy),min(dz),min(e11),min(e12),min(e22),min(e23),min(e31),min(e33),min(lambda),min(s11),min(s12),min(s22),min(s23),min(s31),min(s33),min(vtkOriginalPointIds),q1(VonMises),q1(X),q1(Y),q1(Z),q1(dx),q1(dy),q1(dz),q1(e11),q1(e12),q1(e22),q1(e23),q1(e31),q1(e33),q1(lambda),q1(s11),q1(s12),q1(s22),q1(s23),q1(s31),q1(s33),q1(vtkOriginalPointIds),q3(VonMises),q3(X),q3(Y),q3(Z),q3(dx),q3(dy),q3(dz),q3(e11),q3(e12),q3(e22),q3(e23),q3(e31),q3(e33),q3(lambda),q3(s11),q3(s12),q3(s22),q3(s23),q3(s31),q3(s33),q3(vtkOriginalPointIds),std(VonMises),std(X),std(Y),std(Z),std(dx),std(dy),std(dz),std(e11),std(e12),std(e22),std(e23),std(e31),std(e33),std(lambda),std(s11),std(s12),std(s22),std(s23),std(s31),std(s33),std(vtkOriginalPointIds),vtkValidPointMask
stats,0,1,0.01,11.0775,0.25,-0.25,0.0735,-8.20253e-06,9.03742e-05,7.23535e-15,-2.49917e-05,-6.96154e-06,0.000162306,-2.57005e-15,5.76615e-15,-5.77408e-05,0,1.86784,-0.187426,11.9531,-6.91937e-11,1.55242e-10,0.104425,878,11.0775,0.25,-0.25,0.0735,-8.20253e-06,9.03742e-05,7.23535e-15,-2.49917e-05,-6.96154e-06,0.000162306,-2.57005e-15,5.76615e-15,-5.77408e-05,0,1.86784,-0.187426,11.9531,-6.91937e-11,1.55242e-10,0.104425,878,11.0775,0.25,-0.25,0.0735,-8.20253e-06,9.03742e-05,7.23535e-15,-2.49917e-05,-6.96154e-06,0.000162306,-2.57005e-15,5.76615e-15,-5.77408e-05,0,1.86784,-0.187426,11.9531,-6.91937e-11,1.55242e-10,0.104425,878,11.0775,0.25,-0.25,0.0735,-8.20253e-06,9.03742e-05,7.23535e-15,-2.49917e-05,-6.96154e-06,0.000162306,-2.57005e-15,5.76615e-15,-5.77408e-05,0,1.86784,-0.187426,11.9531,-6.91937e-11,1.55242e-10,0.104425,878,11.0775,0.25,-0.25,0.0735,-8.20253e-06,9.03742e-05,7.23535e-15,-2.49917e-05,-6.96154e-06,0.000162306,-2.57005e-15,5.76615e-15,-5.77408e-05,0,1.86784,-0.187426,11.9531,-6.91937e-11,1.55242e-10,0.104425,878,11.0775,0.25,-0.25,0.0735,-8.20253e-06,9.03742e-05,7.23535e-15,-2.49917e-05,-6.96154e-06,0.000162306,-2.57005e-15,5.76615e-15,-5.77408e-05,0,1.86784,-0.187426,11.9531,-6.91937e-11,1.55242e-10,0.104425,878,0,0,0,0,0,0,0,0,0,0,0,0,0,0,0,0,0,0,0,0,0,1
stats,1,1,0.02,22.1551,0.25,-0.25,0.0735,-1.64051e-05,0.000180748,1.58606e-14,-4.99834e-05,-1.39231e-05,0.000324612,-5.09926e-15,1.15374e-14,-0.000115482,0,3.73567,-0.374852,23.9062,-1.37288e-10,3.10622e-10,0.208851,878,22.1551,0.25,-0.25,0.0735,-1.64051e-05,0.000180748,1.58606e-14,-4.99834e-05,-1.39231e-05,0.000324612,-5.09926e-15,1.15374e-14,-0.000115482,0,3.73567,-0.374852,23.9062,-1.37288e-10,3.10622e-10,0.208851,878,22.1551,0.25,-0.25,0.0735,-1.64051e-05,0.000180748,1.58606e-14,-4.99834e-05,-1.39231e-05,0.000324612,-5.09926e-15,1.15374e-14,-0.000115482,0,3.73567,-0.374852,23.9062,-1.37288e-10,3.10622e-10,0.208851,878,22.1551,0.25,-0.25,0.0735,-1.64051e-05,0.000180748,1.58606e-14,-4.99834e-05,-1.39231e-05,0.000324612,-5.09926e-15,1.15374e-14,-0.000115482,0,3.73567,-0.374852,23.9062,-1.37288e-10,3.10622e-10,0.208851,878,22.1551,0.25,-0.25,0.0735,-1.64051e-05,0.000180748,1.58606e-14,-4.99834e-05,-1.39231e-05,0.000324612,-5.09926e-15,1.15374e-14,-0.000115482,0,3.73567,-0.374852,23.9062,-1.37288e-10,3.10622e-10,0.208851,878,22.1551,0.25,-0.25,0.0735,-1.64051e-05,0.000180748,1.58606e-14,-4.99834e-05,-1.39231e-05,0.000324612,-5.09926e-15,1.15374e-14,-0.000115482,0,3.73567,-0.374852,23.9062,-1.37288e-10,3.10622e-10,0.208851,878,0,0,0,0,0,0,0,0,0,0,0,0,0,0,0,0,0,0,0,0,0,1
stats,2,1,0.03,33.2326,0.25,-0.25,0.0735,-2.46076e-05,0.000271123,2.44697e-14,-7.49751e-05,-2.08846e-05,0.000486918,-7.6293e-15,1.73085e-14,-0.000173222,0,5.60351,-0.562278,35.8593,-2.05404e-10,4.65999e-10,0.313276,878,33.2326,0.25,-0.25,0.0735,-2.46076e-05,0.000271123,2.44697e-14,-7.49751e-05,-2.08846e-05,0.000486918,-7.6293e-15,1.73085e-14,-0.000173222,0,5.60351,-0.562278,35.8593,-2.05404e-10,4.65999e-10,0.313276,878,33.2326,0.25,-0.25,0.0735,-2.46076e-05,0.000271123,2.44697e-14,-7.49751e-05,-2.08846e-05,0.000486918,-7.6293e-15,1.73085e-14,-0.000173222,0,5.60351,-0.562278,35.8593,-2.05404e-10,4.65999e-10,0.313276,878,33.2326,0.25,-0.25,0.0735,-2.46076e-05,0.000271123,2.44697e-14,-7.49751e-05,-2.08846e-05,0.000486918,-7.6293e-15,1.73085e-14,-0.000173222,0,5.60351,-0.562278,35.8593,-2.05404e-10,4.65999e-10,0.313276,878,33.2326,0.25,-0.25,0.0735,-2.46076e-05,0.000271123,2.44697e-14,-7.49751e-05,-2.08846e-05,0.000486918,-7.6293e-15,1.73085e-14,-0.000173222,0,5.60351,-0.562278,35.8593,-2.05404e-10,4.65999e-10,0.313276,878,33.2326,0.25,-0.25,0.0735,-2.46076e-05,0.000271123,2.44697e-14,-7.49751e-05,-2.08846e-05,0.000486918,-7.6293e-15,1.73085e-14,-0.000173222,0,5.60351,-0.562278,35.8593,-2.05404e-10,4.65999e-10,0.313276,878,0,0,0,0,0,0,0,0,0,0,0,0,0,0,0,0,0,0,0,0,0,1
stats,3,1,0.04,44.3101,0.25,-0.25,0.0735,-3.28101e-05,0.000361497,3.31028e-14,-9.99668e-05,-2.78461e-05,0.000649224,-1.01587e-14,2.30803e-14,-0.000230963,0,7.47134,-0.749704,47.8124,-2.73502e-10,6.21392e-10,0.417702,878,44.3101,0.25,-0.25,0.0735,-3.28101e-05,0.000361497,3.31028e-14,-9.99668e-05,-2.78461e-05,0.000649224,-1.01587e-14,2.30803e-14,-0.000230963,0,7.47134,-0.749704,47.8124,-2.73502e-10,6.21392e-10,0.417702,878,44.3101,0.25,-0.25,0.0735,-3.28101e-05,0.000361497,3.31028e-14,-9.99668e-05,-2.78461e-05,0.000649224,-1.01587e-14,2.30803e-14,-0.000230963,0,7.47134,-0.749704,47.8124,-2.73502e-10,6.21392e-10,0.417702,878,44.3101,0.25,-0.25,0.0735,-3.28101e-05,0.000361497,3.31028e-14,-9.99668e-05,-2.78461e-05,0.000649224,-1.01587e-14,2.30803e-14,-0.000230963,0,7.47134,-0.749704,47.8124,-2.73502e-10,6.21392e-10,0.417702,878,44.3101,0.25,-0.25,0.0735,-3.28101e-05,0.000361497,3.31028e-14,-9.99668e-05,-2.78461e-05,0.000649224,-1.01587e-14,2.30803e-14,-0.000230963,0,7.47134,-0.749704,47.8124,-2.73502e-10,6.21392e-10,0.417702,878,44.3101,0.25,-0.25,0.0735,-3.28101e-05,0.000361497,3.31028e-14,-9.99668e-05,-2.78461e-05,0.000649224,-1.01587e-14,2.30803e-14,-0.000230963,0,7.47134,-0.749704,47.8124,-2.73502e-10,6.21392e-10,0.417702,878,0,0,0,0,0,0,0,0,0,0,0,0,0,0,0,0,0,0,0,0,0,1
stats,4,1,0.05,55.3877,0.25,-0.25,0.0735,-4.10127e-05,0.000451871,4.16838e-14,-0.000124959,-3.48077e-05,0.00081153,-1.26881e-14,2.88512e-14,-0.000288704,0,9.33918,-0.93713,59.7655,-3.41603e-10,7.76764e-10,0.522127,878,55.3877,0.25,-0.25,0.0735,-4.10127e-05,0.000451871,4.16838e-14,-0.000124959,-3.48077e-05,0.00081153,-1.26881e-14,2.88512e-14,-0.000288704,0,9.33918,-0.93713,59.7655,-3.41603e-10,7.76764e-10,0.522127,878,55.3877,0.25,-0.25,0.0735,-4.10127e-05,0.000451871,4.16838e-14,-0.000124959,-3.48077e-05,0.00081153,-1.26881e-14,2.88512e-14,-0.000288704,0,9.33918,-0.93713,59.7655,-3.41603e-10,7.76764e-10,0.522127,878,55.3877,0.25,-0.25,0.0735,-4.10127e-05,0.000451871,4.16838e-14,-0.000124959,-3.48077e-05,0.00081153,-1.26881e-14,2.88512e-14,-0.000288704,0,9.33918,-0.93713,59.7655,-3.41603e-10,7.76764e-10,0.522127,878,55.3877,0.25,-0.25,0.0735,-4.10127e-05,0.000451871,4.16838e-14,-0.000124959,-3.48077e-05,0.00081153,-1.26881e-14,2.88512e-14,-0.000288704,0,9.33918,-0.93713,59.7655,-3.41603e-10,7.76764e-10,0.522127,878,55.3877,0.25,-0.25,0.0735,-4.10127e-05,0.000451871,4.16838e-14,-0.000124959,-3.48077e-05,0.00081153,-1.26881e-14,2.88512e-14,-0.000288704,0,9.33918,-0.93713,59.7655,-3.41603e-10,7.76764e-10,0.522127,878,0,0,0,0,0,0,0,0,0,0,0,0,0,0,0,0,0,0,0,0,0,1
stats,5,1,0.06,66.4652,0.25,-0.25,0.0735,-4.92152e-05,0.000542245,5.02624e-14,-0.00014995,-4.17692e-05,0.000973835,-1.52172e-14,3.46227e-14,-0.000346445,0,11.207,-1.12456,71.7185,-4.09694e-10,9.3215e-10,0.626553,878,66.4652,0.25,-0.25,0.0735,-4.92152e-05,0.000542245,5.02624e-14,-0.00014995,-4.17692e-05,0.000973835,-1.52172e-14,3.46227e-14,-0.000346445,0,11.207,-1.12456,71.7185,-4.09694e-10,9.3215e-10,0.626553,878,66.4652,0.25,-0.25,0.0735,-4.92152e-05,0.000542245,5.02624e-14,-0.00014995,-4.17692e-05,0.000973835,-1.52172e-14,3.46227e-14,-0.000346445,0,11.207,-1.12456,71.7185,-4.09694e-10,9.3215e-10,0.626553,878,66.4652,0.25,-0.25,0.0735,-4.92152e-05,0.000542245,5.02624e-14,-0.00014995,-4.17692e-05,0.000973835,-1.52172e-14,3.46227e-14,-0.000346445,0,11.207,-1.12456,71.7185,-4.09694e-10,9.3215e-10,0.626553,878,66.4652,0.25,-0.25,0.0735,-4.92152e-05,0.000542245,5.02624e-14,-0.00014995,-4.17692e-05,0.000973835,-1.52172e-14,3.46227e-14,-0.000346445,0,11.207,-1.12456,71.7185,-4.09694e-10,9.3215e-10,0.626553,878,66.4652,0.25,-0.25,0.0735,-4.92152e-05,0.000542245,5.02624e-14,-0.00014995,-4.17692e-05,0.000973835,-1.52172e-14,3.46227e-14,-0.000346445,0,11.207,-1.12456,71.7185,-4.09694e-10,9.3215e-10,0.626553,878,0,0,0,0,0,0,0,0,0,0,0,0,0,0,0,0,0,0,0,0,0,1
stats,6,1,0.07,77.5428,0.25,-0.25,0.0735,-5.74177e-05,0.000632619,5.88349e-14,-0.000174942,-4.87308e-05,0.00113614,-1.77449e-14,4.03941e-14,-0.000404185,0,13.0749,-1.31198,83.6716,-4.77748e-10,1.08753e-09,0.730978,878,77.5428,0.25,-0.25,0.0735,-5.74177e-05,0.000632619,5.88349e-14,-0.000174942,-4.87308e-05,0.00113614,-1.77449e-14,4.03941e-14,-0.000404185,0,13.0749,-1.31198,83.6716,-4.77748e-10,1.08753e-09,0.730978,878,77.5428,0.25,-0.25,0.0735,-5.74177e-05,0.000632619,5.88349e-14,-0.000174942,-4.87308e-05,0.00113614,-1.77449e-14,4.03941e-14,-0.000404185,0,13.0749,-1.31198,83.6716,-4.77748e-10,1.08753e-09,0.730978,878,77.5428,0.25,-0.25,0.0735,-5.74177e-05,0.000632619,5.88349e-14,-0.000174942,-4.87308e-05,0.00113614,-1.77449e-14,4.03941e-14,-0.000404185,0,13.0749,-1.31198,83.6716,-4.77748e-10,1.08753e-09,0.730978,878,77.5428,0.25,-0.25,0.0735,-5.74177e-05,0.000632619,5.88349e-14,-0.000174942,-4.87308e-05,0.00113614,-1.77449e-14,4.03941e-14,-0.000404185,0,13.0749,-1.31198,83.6716,-4.77748e-10,1.08753e-09,0.730978,878,77.5428,0.25,-0.25,0.0735,-5.74177e-05,0.000632619,5.88349e-14,-0.000174942,-4.87308e-05,0.00113614,-1.77449e-14,4.03941e-14,-0.000404185,0,13.0749,-1.31198,83.6716,-4.77748e-10,1.08753e-09,0.730978,878,0,0,0,0,0,0,0,0,0,0,0,0,0,0,0,0,0,0,0,0,0,1
stats,7,1,0.08,88.6203,0.25,-0.25,0.0735,-6.56203e-05,0.000722994,6.74258e-14,-0.000199934,-5.56923e-05,0.00129845,-2.02763e-14,4.61653e-14,-0.000461926,0,14.9427,-1.49941,95.6247,-5.459e-10,1.24291e-09,0.835404,878,88.6203,0.25,-0.25,0.0735,-6.56203e-05,0.000722994,6.74258e-14,-0.000199934,-5.56923e-05,0.00129845,-2.02763e-14,4.61653e-14,-0.000461926,0,14.9427,-1.49941,95.6247,-5.459e-10,1.24291e-09,0.835404,878,88.6203,0.25,-0.25,0.0735,-6.56203e-05,0.000722994,6.74258e-14,-0.000199934,-5.56923e-05,0.00129845,-2.02763e-14,4.61653e-14,-0.000461926,0,14.9427,-1.49941,95.6247,-5.459e-10,1.24291e-09,0.835404,878,88.6203,0.25,-0.25,0.0735,-6.56203e-05,0.000722994,6.74258e-14,-0.000199934,-5.56923e-05,0.00129845,-2.02763e-14,4.61653e-14,-0.000461926,0,14.9427,-1.49941,95.6247,-5.459e-10,1.24291e-09,0.835404,878,88.6203,0.25,-0.25,0.0735,-6.56203e-05,0.000722994,6.74258e-14,-0.000199934,-5.56923e-05,0.00129845,-2.02763e-14,4.61653e-14,-0.000461926,0,14.9427,-1.49941,95.6247,-5.459e-10,1.24291e-09,0.835404,878,88.6203,0.25,-0.25,0.0735,-6.56203e-05,0.000722994,6.74258e-14,-0.000199934,-5.56923e-05,0.00129845,-2.02763e-14,4.61653e-14,-0.000461926,0,14.9427,-1.49941,95.6247,-5.459e-10,1.24291e-09,0.835404,878,0,0,0,0,0,0,0,0,0,0,0,0,0,0,0,0,0,0,0,0,0,1
stats,8,1,0.09,99.6978,0.25,-0.25,0.0735,-7.38228e-05,0.000813368,7.6039e-14,-0.000224925,-6.26538e-05,0.00146075,-2.28079e-14,5.19363e-14,-0.000519667,0,16.8105,-1.68683,107.578,-6.14059e-10,1.39828e-09,0.939829,878,99.6978,0.25,-0.25,0.0735,-7.38228e-05,0.000813368,7.6039e-14,-0.000224925,-6.26538e-05,0.00146075,-2.28079e-14,5.19363e-14,-0.000519667,0,16.8105,-1.68683,107.578,-6.14059e-10,1.39828e-09,0.939829,878,99.6978,0.25,-0.25,0.0735,-7.38228e-05,0.000813368,7.6039e-14,-0.000224925,-6.26538e-05,0.00146075,-2.28079e-14,5.19363e-14,-0.000519667,0,16.8105,-1.68683,107.578,-6.14059e-10,1.39828e-09,0.939829,878,99.6978,0.25,-0.25,0.0735,-7.38228e-05,0.000813368,7.6039e-14,-0.000224925,-6.26538e-05,0.00146075,-2.28079e-14,5.19363e-14,-0.000519667,0,16.8105,-1.68683,107.578,-6.14059e-10,1.39828e-09,0.939829,878,99.6978,0.25,-0.25,0.0735,-7.38228e-05,0.000813368,7.6039e-14,-0.000224925,-6.26538e-05,0.00146075,-2.28079e-14,5.19363e-14,-0.000519667,0,16.8105,-1.68683,107.578,-6.14059e-10,1.39828e-09,0.939829,878,99.6978,0.25,-0.25,0.0735,-7.38228e-05,0.000813368,7.6039e-14,-0.000224925,-6.26538e-05,0.00146075,-2.28079e-14,5.19363e-14,-0.000519667,0,16.8105,-1.68683,107.578,-6.14059e-10,1.39828e-09,0.939829,878,0,0,0,0,0,0,0,0,0,0,0,0,0,0,0,0,0,0,0,0,0,1
stats,9,1,0.1,110.775,0.25,-0.25,0.0735,-8.20253e-05,0.000903742,8.46611e-14,-0.000249917,-6.96154e-05,0.00162306,-2.53367e-14,5.77075e-14,-0.000577408,0,18.6784,-1.87426,119.531,-6.82142e-10,1.55366e-09,1.04425,878,110.775,0.25,-0.25,0.0735,-8.20253e-05,0.000903742,8.46611e-14,-0.000249917,-6.96154e-05,0.00162306,-2.53367e-14,5.77075e-14,-0.000577408,0,18.6784,-1.87426,119.531,-6.82142e-10,1.55366e-09,1.04425,878,110.775,0.25,-0.25,0.0735,-8.20253e-05,0.000903742,8.46611e-14,-0.000249917,-6.96154e-05,0.00162306,-2.53367e-14,5.77075e-14,-0.000577408,0,18.6784,-1.87426,119.531,-6.82142e-10,1.55366e-09,1.04425,878,110.775,0.25,-0.25,0.0735,-8.20253e-05,0.000903742,8.46611e-14,-0.000249917,-6.96154e-05,0.00162306,-2.53367e-14,5.77075e-14,-0.000577408,0,18.6784,-1.87426,119.531,-6.82142e-10,1.55366e-09,1.04425,878,110.775,0.25,-0.25,0.0735,-8.20253e-05,0.000903742,8.46611e-14,-0.000249917,-6.96154e-05,0.00162306,-2.53367e-14,5.77075e-14,-0.000577408,0,18.6784,-1.87426,119.531,-6.82142e-10,1.55366e-09,1.04425,878,110.775,0.25,-0.25,0.0735,-8.20253e-05,0.000903742,8.46611e-14,-0.000249917,-6.96154e-05,0.00162306,-2.53367e-14,5.77075e-14,-0.000577408,0,18.6784,-1.87426,119.531,-6.82142e-10,1.55366e-09,1.04425,878,0,0,0,0,0,0,0,0,0,0,0,0,0,0,0,0,0,0,0,0,0,1
stats,10,1,0.11,121.853,0.25,-0.25,0.0735,-9.02279e-05,0.000994116,9.32409e-14,-0.000274909,-7.65769e-05,0.00178536,-2.78667e-14,6.3479e-14,-0.000635148,0,20.5462,-2.06169,131.484,-7.50257e-10,1.70905e-09,1.14868,878,121.853,0.25,-0.25,0.0735,-9.02279e-05,0.000994116,9.32409e-14,-0.000274909,-7.65769e-05,0.00178536,-2.78667e-14,6.3479e-14,-0.000635148,0,20.5462,-2.06169,131.484,-7.50257e-10,1.70905e-09,1.14868,878,121.853,0.25,-0.25,0.0735,-9.02279e-05,0.000994116,9.32409e-14,-0.000274909,-7.65769e-05,0.00178536,-2.78667e-14,6.3479e-14,-0.000635148,0,20.5462,-2.06169,131.484,-7.50257e-10,1.70905e-09,1.14868,878,121.853,0.25,-0.25,0.0735,-9.02279e-05,0.000994116,9.32409e-14,-0.000274909,-7.65769e-05,0.00178536,-2.78667e-14,6.3479e-14,-0.000635148,0,20.5462,-2.06169,131.484,-7.50257e-10,1.70905e-09,1.14868,878,121.853,0.25,-0.25,0.0735,-9.02279e-05,0.000994116,9.32409e-14,-0.000274909,-7.65769e-05,0.00178536,-2.78667e-14,6.3479e-14,-0.000635148,0,20.5462,-2.06169,131.484,-7.50257e-10,1.70905e-09,1.14868,878,121.853,0.25,-0.25,0.0735,-9.02279e-05,0.000994116,9.32409e-14,-0.000274909,-7.65769e-05,0.00178536,-2.78667e-14,6.3479e-14,-0.000635148,0,20.5462,-2.06169,131.484,-7.50257e-10,1.70905e-09,1.14868,878,0,0,0,0,0,0,0,0,0,0,0,0,0,0,0,0,0,0,0,0,0,1
stats,11,1,0.12,132.93,0.25,-0.25,0.0735,-9.84304e-05,0.00108449,1.01824e-13,-0.0002999,-8.35384e-05,0.00194767,-3.0397e-14,6.925e-14,-0.000692889,0,22.414,-2.24911,143.437,-8.18381e-10,1.86442e-09,1.25311,878,132.93,0.25,-0.25,0.0735,-9.84304e-05,0.00108449,1.01824e-13,-0.0002999,-8.35384e-05,0.00194767,-3.0397e-14,6.925e-14,-0.000692889,0,22.414,-2.24911,143.437,-8.18381e-10,1.86442e-09,1.25311,878,132.93,0.25,-0.25,0.0735,-9.84304e-05,0.00108449,1.01824e-13,-0.0002999,-8.35384e-05,0.00194767,-3.0397e-14,6.925e-14,-0.000692889,0,22.414,-2.24911,143.437,-8.18381e-10,1.86442e-09,1.25311,878,132.93,0.25,-0.25,0.0735,-9.84304e-05,0.00108449,1.01824e-13,-0.0002999,-8.35384e-05,0.00194767,-3.0397e-14,6.925e-14,-0.000692889,0,22.414,-2.24911,143.437,-8.18381e-10,1.86442e-09,1.25311,878,132.93,0.25,-0.25,0.0735,-9.84304e-05,0.00108449,1.01824e-13,-0.0002999,-8.35384e-05,0.00194767,-3.0397e-14,6.925e-14,-0.000692889,0,22.414,-2.24911,143.437,-8.18381e-10,1.86442e-09,1.25311,878,132.93,0.25,-0.25,0.0735,-9.84304e-05,0.00108449,1.01824e-13,-0.0002999,-8.35384e-05,0.00194767,-3.0397e-14,6.925e-14,-0.000692889,0,22.414,-2.24911,143.437,-8.18381e-10,1.86442e-09,1.25311,878,0,0,0,0,0,0,0,0,0,0,0,0,0,0,0,0,0,0,0,0,0,1
stats,12,1,0.13,144.008,0.25,-0.25,0.0735,-0.000106633,0.00117486,1.10494e-13,-0.000324892,-9.05e-05,0.00210998,-3.29271e-14,7.50212e-14,-0.00075063,0,24.2819,-2.43654,155.39,-8.86499e-10,2.0198e-09,1.35753,878,144.008,0.25,-0.25,0.0735,-0.000106633,0.00117486,1.10494e-13,-0.000324892,-9.05e-05,0.00210998,-3.29271e-14,7.50212e-14,-0.00075063,0,24.2819,-2.43654,155.39,-8.86499e-10,2.0198e-09,1.35753,878,144.008,0.25,-0.25,0.0735,-0.000106633,0.00117486,1.10494e-13,-0.000324892,-9.05e-05,0.00210998,-3.29271e-14,7.50212e-14,-0.00075063,0,24.2819,-2.43654,155.39,-8.86499e-10,2.0198e-09,1.35753,878,144.008,0.25,-0.25,0.0735,-0.000106633,0.00117486,1.10494e-13,-0.000324892,-9.05e-05,0.00210998,-3.29271e-14,7.50212e-14,-0.00075063,0,24.2819,-2.43654,155.39,-8.86499e-10,2.0198e-09,1.35753,878,144.008,0.25,-0.25,0.0735,-0.000106633,0.00117486,1.10494e-13,-0.000324892,-9.05e-05,0.00210998,-3.29271e-14,7.50212e-14,-0.00075063,0,24.2819,-2.43654,155.39,-8.86499e-10,2.0198e-09,1.35753,878,144.008,0.25,-0.25,0.0735,-0.000106633,0.00117486,1.10494e-13,-0.000324892,-9.05e-05,0.00210998,-3.29271e-14,7.50212e-14,-0.00075063,0,24.2819,-2.43654,155.39,-8.86499e-10,2.0198e-09,1.35753,878,0,0,0,0,0,0,0,0,0,0,0,0,0,0,0,0,0,0,0,0,0,1
stats,13,1,0.14,155.086,0.25,-0.25,0.0735,-0.000114835,0.00126524,1.19101e-13,-0.000349884,-9.74615e-05,0.00227228,-3.54559e-14,8.07925e-14,-0.000808371,0,26.1497,-2.62396,167.343,-9.54583e-10,2.17518e-09,1.46196,878,155.086,0.25,-0.25,0.0735,-0.000114835,0.00126524,1.19101e-13,-0.000349884,-9.74615e-05,0.00227228,-3.54559e-14,8.07925e-14,-0.000808371,0,26.1497,-2.62396,167.343,-9.54583e-10,2.17518e-09,1.46196,878,155.086,0.25,-0.25,0.0735,-0.000114835,0.00126524,1.19101e-13,-0.000349884,-9.74615e-05,0.00227228,-3.54559e-14,8.07925e-14,-0.000808371,0,26.1497,-2.62396,167.343,-9.54583e-10,2.17518e-09,1.46196,878,155.086,0.25,-0.25,0.0735,-0.000114835,0.00126524,1.19101e-13,-0.000349884,-9.74615e-05,0.00227228,-3.54559e-14,8.07925e-14,-0.000808371,0,26.1497,-2.62396,167.343,-9.54583e-10,2.17518e-09,1.46196,878,155.086,0.25,-0.25,0.0735,-0.000114835,0.00126524,1.19101e-13,-0.000349884,-9.74615e-05,0.00227228,-3.54559e-14,8.07925e-14,-0.000808371,0,26.1497,-2.62396,167.343,-9.54583e-10,2.17518e-09,1.46196,878,155.086,0.25,-0.25,0.0735,-0.000114835,0.00126524,1.19101e-13,-0.000349884,-9.74615e-05,0.00227228,-3.54559e-14,8.07925e-14,-0.000808371,0,26.1497,-2.62396,167.343,-9.54583e-10,2.17518e-09,1.46196,878,0,0,0,0,0,0,0,0,0,0,0,0,0,0,0,0,0,0,0,0,0,1
stats,14,1,0.15,166.163,0.25,-0.25,0.0735,-0.000123038,0.00135561,1.27738e-13,-0.000374876,-0.000104423,0.00243459,-3.79856e-14,8.65639e-14,-0.000866111,0,28.0175,-2.81139,179.296,-1.02269e-09,2.33057e-09,1.56638,878,166.163,0.25,-0.25,0.0735,-0.000123038,0.00135561,1.27738e-13,-0.000374876,-0.000104423,0.00243459,-3.79856e-14,8.65639e-14,-0.000866111,0,28.0175,-2.81139,179.296,-1.02269e-09,2.33057e-09,1.56638,878,166.163,0.25,-0.25,0.0735,-0.000123038,0.00135561,1.27738e-13,-0.000374876,-0.000104423,0.00243459,-3.79856e-14,8.65639e-14,-0.000866111,0,28.0175,-2.81139,179.296,-1.02269e-09,2.33057e-09,1.56638,878,166.163,0.25,-0.25,0.0735,-0.000123038,0.00135561,1.27738e-13,-0.000374876,-0.000104423,0.00243459,-3.79856e-14,8.65639e-14,-0.000866111,0,28.0175,-2.81139,179.296,-1.02269e-09,2.33057e-09,1.56638,878,166.163,0.25,-0.25,0.0735,-0.000123038,0.00135561,1.27738e-13,-0.000374876,-0.000104423,0.00243459,-3.79856e-14,8.65639e-14,-0.000866111,0,28.0175,-2.81139,179.296,-1.02269e-09,2.33057e-09,1.56638,878,166.163,0.25,-0.25,0.0735,-0.000123038,0.00135561,1.27738e-13,-0.000374876,-0.000104423,0.00243459,-3.79856e-14,8.65639e-14,-0.000866111,0,28.0175,-2.81139,179.296,-1.02269e-09,2.33057e-09,1.56638,878,0,0,0,0,0,0,0,0,0,0,0,0,0,0,0,0,0,0,0,0,0,1
stats,15,1,0.16,177.241,0.25,-0.25,0.0735,-0.000131241,0.00144599,1.36337e-13,-0.000399867,-0.000111385,0.00259689,-4.05181e-14,9.23347e-14,-0.000923852,0,29.8854,-2.99882,191.249,-1.09087e-09,2.48593e-09,1.67081,878,177.241,0.25,-0.25,0.0735,-0.000131241,0.00144599,1.36337e-13,-0.000399867,-0.000111385,0.00259689,-4.05181e-14,9.23347e-14,-0.000923852,0,29.8854,-2.99882,191.249,-1.09087e-09,2.48593e-09,1.67081,878,177.241,0.25,-0.25,0.0735,-0.000131241,0.00144599,1.36337e-13,-0.000399867,-0.000111385,0.00259689,-4.05181e-14,9.23347e-14,-0.000923852,0,29.8854,-2.99882,191.249,-1.09087e-09,2.48593e-09,1.67081,878,177.241,0.25,-0.25,0.0735,-0.000131241,0.00144599,1.36337e-13,-0.000399867,-0.000111385,0.00259689,-4.05181e-14,9.23347e-14,-0.000923852,0,29.8854,-2.99882,191.249,-1.09087e-09,2.48593e-09,1.67081,878,177.241,0.25,-0.25,0.0735,-0.000131241,0.00144599,1.36337e-13,-0.000399867,-0.000111385,0.00259689,-4.05181e-14,9.23347e-14,-0.000923852,0,29.8854,-2.99882,191.249,-1.09087e-09,2.48593e-09,1.67081,878,177.241,0.25,-0.25,0.0735,-0.000131241,0.00144599,1.36337e-13,-0.000399867,-0.000111385,0.00259689,-4.05181e-14,9.23347e-14,-0.000923852,0,29.8854,-2.99882,191.249,-1.09087e-09,2.48593e-09,1.67081,878,0,0,0,0,0,0,0,0,0,0,0,0,0,0,0,0,0,0,0,0,0,1
stats,16,1,0.17,188.318,0.25,-0.25,0.0735,-0.000139443,0.00153636,1.45018e-13,-0.000424859,-0.000118346,0.0027592,-4.30473e-14,9.81062e-14,-0.000981593,0,31.7532,-3.18624,203.203,-1.15897e-09,2.64132e-09,1.77523,878,188.318,0.25,-0.25,0.0735,-0.000139443,0.00153636,1.45018e-13,-0.000424859,-0.000118346,0.0027592,-4.30473e-14,9.81062e-14,-0.000981593,0,31.7532,-3.18624,203.203,-1.15897e-09,2.64132e-09,1.77523,878,188.318,0.25,-0.25,0.0735,-0.000139443,0.00153636,1.45018e-13,-0.000424859,-0.000118346,0.0027592,-4.30473e-14,9.81062e-14,-0.000981593,0,31.7532,-3.18624,203.203,-1.15897e-09,2.64132e-09,1.77523,878,188.318,0.25,-0.25,0.0735,-0.000139443,0.00153636,1.45018e-13,-0.000424859,-0.000118346,0.0027592,-4.30473e-14,9.81062e-14,-0.000981593,0,31.7532,-3.18624,203.203,-1.15897e-09,2.64132e-09,1.77523,878,188.318,0.25,-0.25,0.0735,-0.000139443,0.00153636,1.45018e-13,-0.000424859,-0.000118346,0.0027592,-4.30473e-14,9.81062e-14,-0.000981593,0,31.7532,-3.18624,203.203,-1.15897e-09,2.64132e-09,1.77523,878,188.318,0.25,-0.25,0.0735,-0.000139443,0.00153636,1.45018e-13,-0.000424859,-0.000118346,0.0027592,-4.30473e-14,9.81062e-14,-0.000981593,0,31.7532,-3.18624,203.203,-1.15897e-09,2.64132e-09,1.77523,878,0,0,0,0,0,0,0,0,0,0,0,0,0,0,0,0,0,0,0,0,0,1
stats,17,1,0.18,199.396,0.25,-0.25,0.0735,-0.000147646,0.00162674,1.5364e-13,-0.000449851,-0.000125308,0.00292151,-4.55742e-14,1.03878e-13,-0.00103933,0,33.621,-3.37367,215.156,-1.227e-09,2.79671e-09,1.87966,878,199.396,0.25,-0.25,0.0735,-0.000147646,0.00162674,1.5364e-13,-0.000449851,-0.000125308,0.00292151,-4.55742e-14,1.03878e-13,-0.00103933,0,33.621,-3.37367,215.156,-1.227e-09,2.79671e-09,1.87966,878,199.396,0.25,-0.25,0.0735,-0.000147646,0.00162674,1.5364e-13,-0.000449851,-0.000125308,0.00292151,-4.55742e-14,1.03878e-13,-0.00103933,0,33.621,-3.37367,215.156,-1.227e-09,2.79671e-09,1.87966,878,199.396,0.25,-0.25,0.0735,-0.000147646,0.00162674,1.5364e-13,-0.000449851,-0.000125308,0.00292151,-4.55742e-14,1.03878e-13,-0.00103933,0,33.621,-3.37367,215.156,-1.227e-09,2.79671e-09,1.87966,878,199.396,0.25,-0.25,0.0735,-0.000147646,0.00162674,1.5364e-13,-0.000449851,-0.000125308,0.00292151,-4.55742e-14,1.03878e-13,-0.00103933,0,33.621,-3.37367,215.156,-1.227e-09,2.79671e-09,1.87966,878,199.396,0.25,-0.25,0.0735,-0.000147646,0.00162674,1.5364e-13,-0.000449851,-0.000125308,0.00292151,-4.55742e-14,1.03878e-13,-0.00103933,0,33.621,-3.37367,215.156,-1.227e-09,2.79671e-09,1.87966,878,0,0,0,0,0,0,0,0,0,0,0,0,0,0,0,0,0,0,0,0,0,1
stats,18,1,0.19,210.473,0.25,-0.25,0.0735,-0.000155848,0.00171711,1.62222e-13,-0.000474842,-0.000132269,0.00308381,-4.81055e-14,1.09649e-13,-0.00109707,0,35.4889,-3.56109,227.109,-1.29515e-09,2.95209e-09,1.98408,878,210.473,0.25,-0.25,0.0735,-0.000155848,0.00171711,1.62222e-13,-0.000474842,-0.000132269,0.00308381,-4.81055e-14,1.09649e-13,-0.00109707,0,35.4889,-3.56109,227.109,-1.29515e-09,2.95209e-09,1.98408,878,210.473,0.25,-0.25,0.0735,-0.000155848,0.00171711,1.62222e-13,-0.000474842,-0.000132269,0.00308381,-4.81055e-14,1.09649e-13,-0.00109707,0,35.4889,-3.56109,227.109,-1.29515e-09,2.95209e-09,1.98408,878,210.473,0.25,-0.25,0.0735,-0.000155848,0.00171711,1.62222e-13,-0.000474842,-0.000132269,0.00308381,-4.81055e-14,1.09649e-13,-0.00109707,0,35.4889,-3.56109,227.109,-1.29515e-09,2.95209e-09,1.98408,878,210.473,0.25,-0.25,0.0735,-0.000155848,0.00171711,1.62222e-13,-0.000474842,-0.000132269,0.00308381,-4.81055e-14,1.09649e-13,-0.00109707,0,35.4889,-3.56109,227.109,-1.29515e-09,2.95209e-09,1.98408,878,210.473,0.25,-0.25,0.0735,-0.000155848,0.00171711,1.62222e-13,-0.000474842,-0.000132269,0.00308381,-4.81055e-14,1.09649e-13,-0.00109707,0,35.4889,-3.56109,227.109,-1.29515e-09,2.95209e-09,1.98408,878,0,0,0,0,0,0,0,0,0,0,0,0,0,0,0,0,0,0,0,0,0,1
stats,19,1,0.2,221.551,0.25,-0.25,0.0735,-0.000164051,0.00180748,1.70873e-13,-0.000499834,-0.000139231,0.00324612,-5.06354e-14,1.1542e-13,-0.00115482,0,37.3567,-3.74852,239.062,-1.36326e-09,3.10746e-09,2.08851,878,221.551,0.25,-0.25,0.0735,-0.000164051,0.00180748,1.70873e-13,-0.000499834,-0.000139231,0.00324612,-5.06354e-14,1.1542e-13,-0.00115482,0,37.3567,-3.74852,239.062,-1.36326e-09,3.10746e-09,2.08851,878,221.551,0.25,-0.25,0.0735,-0.000164051,0.00180748,1.70873e-13,-0.000499834,-0.000139231,0.00324612,-5.06354e-14,1.1542e-13,-0.00115482,0,37.3567,-3.74852,239.062,-1.36326e-09,3.10746e-09,2.08851,878,221.551,0.25,-0.25,0.0735,-0.000164051,0.00180748,1.70873e-13,-0.000499834,-0.000139231,0.00324612,-5.06354e-14,1.1542e-13,-0.00115482,0,37.3567,-3.74852,239.062,-1.36326e-09,3.10746e-09,2.08851,878,221.551,0.25,-0.25,0.0735,-0.000164051,0.00180748,1.70873e-13,-0.000499834,-0.000139231,0.00324612,-5.06354e-14,1.1542e-13,-0.00115482,0,37.3567,-3.74852,239.062,-1.36326e-09,3.10746e-09,2.08851,878,221.551,0.25,-0.25,0.0735,-0.000164051,0.00180748,1.70873e-13,-0.000499834,-0.000139231,0.00324612,-5.06354e-14,1.1542e-13,-0.00115482,0,37.3567,-3.74852,239.062,-1.36326e-09,3.10746e-09,2.08851,878,0,0,0,0,0,0,0,0,0,0,0,0,0,0,0,0,0,0,0,0,0,1
stats,20,1,0.21,232.628,0.25,-0.25,0.0735,-0.000172253,0.00189786,1.79495e-13,-0.000524826,-0.000146192,0.00340842,-5.31647e-14,1.21191e-13,-0.00121256,0,39.2246,-3.93595,251.015,-1.43136e-09,3.26284e-09,2.19294,878,232.628,0.25,-0.25,0.0735,-0.000172253,0.00189786,1.79495e-13,-0.000524826,-0.000146192,0.00340842,-5.31647e-14,1.21191e-13,-0.00121256,0,39.2246,-3.93595,251.015,-1.43136e-09,3.26284e-09,2.19294,878,232.628,0.25,-0.25,0.0735,-0.000172253,0.00189786,1.79495e-13,-0.000524826,-0.000146192,0.00340842,-5.31647e-14,1.21191e-13,-0.00121256,0,39.2246,-3.93595,251.015,-1.43136e-09,3.26284e-09,2.19294,878,232.628,0.25,-0.25,0.0735,-0.000172253,0.00189786,1.79495e-13,-0.000524826,-0.000146192,0.00340842,-5.31647e-14,1.21191e-13,-0.00121256,0,39.2246,-3.93595,251.015,-1.43136e-09,3.26284e-09,2.19294,878,232.628,0.25,-0.25,0.0735,-0.000172253,0.00189786,1.79495e-13,-0.000524826,-0.000146192,0.00340842,-5.31647e-14,1.21191e-13,-0.00121256,0,39.2246,-3.93595,251.015,-1.43136e-09,3.26284e-09,2.19294,878,232.628,0.25,-0.25,0.0735,-0.000172253,0.00189786,1.79495e-13,-0.000524826,-0.000146192,0.00340842,-5.31647e-14,1.21191e-13,-0.00121256,0,39.2246,-3.93595,251.015,-1.43136e-09,3.26284e-09,2.19294,878,0,0,0,0,0,0,0,0,0,0,0,0,0,0,0,0,0,0,0,0,0,1
stats,21,1,0.22,243.706,0.25,-0.25,0.0735,-0.000180456,0.00198823,1.88134e-13,-0.000549818,-0.000153154,0.00357073,-5.5694e-14,1.26963e-13,-0.0012703,0,41.0924,-4.12337,262.968,-1.49945e-09,3.41823e-09,2.29736,878,243.706,0.25,-0.25,0.0735,-0.000180456,0.00198823,1.88134e-13,-0.000549818,-0.000153154,0.00357073,-5.5694e-14,1.26963e-13,-0.0012703,0,41.0924,-4.12337,262.968,-1.49945e-09,3.41823e-09,2.29736,878,243.706,0.25,-0.25,0.0735,-0.000180456,0.00198823,1.88134e-13,-0.000549818,-0.000153154,0.00357073,-5.5694e-14,1.26963e-13,-0.0012703,0,41.0924,-4.12337,262.968,-1.49945e-09,3.41823e-09,2.29736,878,243.706,0.25,-0.25,0.0735,-0.000180456,0.00198823,1.88134e-13,-0.000549818,-0.000153154,0.00357073,-5.5694e-14,1.26963e-13,-0.0012703,0,41.0924,-4.12337,262.968,-1.49945e-09,3.41823e-09,2.29736,878,243.706,0.25,-0.25,0.0735,-0.000180456,0.00198823,1.88134e-13,-0.000549818,-0.000153154,0.00357073,-5.5694e-14,1.26963e-13,-0.0012703,0,41.0924,-4.12337,262.968,-1.49945e-09,3.41823e-09,2.29736,878,243.706,0.25,-0.25,0.0735,-0.000180456,0.00198823,1.88134e-13,-0.000549818,-0.000153154,0.00357073,-5.5694e-14,1.26963e-13,-0.0012703,0,41.0924,-4.12337,262.968,-1.49945e-09,3.41823e-09,2.29736,878,0,0,0,0,0,0,0,0,0,0,0,0,0,0,0,0,0,0,0,0,0,1
stats,22,1,0.23,254.783,0.25,-0.25,0.0735,-0.000188658,0.00207861,1.96735e-13,-0.000574809,-0.000160115,0.00373304,-5.82225e-14,1.32734e-13,-0.00132804,0,42.9602,-4.3108,274.921,-1.56753e-09,3.57361e-09,2.40179,878,254.783,0.25,-0.25,0.0735,-0.000188658,0.00207861,1.96735e-13,-0.000574809,-0.000160115,0.00373304,-5.82225e-14,1.32734e-13,-0.00132804,0,42.9602,-4.3108,274.921,-1.56753e-09,3.57361e-09,2.40179,878,254.783,0.25,-0.25,0.0735,-0.000188658,0.00207861,1.96735e-13,-0.000574809,-0.000160115,0.00373304,-5.82225e-14,1.32734e-13,-0.00132804,0,42.9602,-4.3108,274.921,-1.56753e-09,3.57361e-09,2.40179,878,254.783,0.25,-0.25,0.0735,-0.000188658,0.00207861,1.96735e-13,-0.000574809,-0.000160115,0.00373304,-5.82225e-14,1.32734e-13,-0.00132804,0,42.9602,-4.3108,274.921,-1.56753e-09,3.57361e-09,2.40179,878,254.783,0.25,-0.25,0.0735,-0.000188658,0.00207861,1.96735e-13,-0.000574809,-0.000160115,0.00373304,-5.82225e-14,1.32734e-13,-0.00132804,0,42.9602,-4.3108,274.921,-1.56753e-09,3.57361e-09,2.40179,878,254.783,0.25,-0.25,0.0735,-0.000188658,0.00207861,1.96735e-13,-0.000574809,-0.000160115,0.00373304,-5.82225e-14,1.32734e-13,-0.00132804,0,42.9602,-4.3108,274.921,-1.56753e-09,3.57361e-09,2.40179,878,0,0,0,0,0,0,0,0,0,0,0,0,0,0,0,0,0,0,0,0,0,1
stats,23,1,0.24,265.861,0.25,-0.25,0.0735,-0.000196861,0.00216898,2.05355e-13,-0.000599801,-0.000167077,0.00389534,-6.07527e-14,1.38505e-13,-0.00138578,0,44.8281,-4.49822,286.874,-1.63565e-09,3.72898e-09,2.50621,878,265.861,0.25,-0.25,0.0735,-0.000196861,0.00216898,2.05355e-13,-0.000599801,-0.000167077,0.00389534,-6.07527e-14,1.38505e-13,-0.00138578,0,44.8281,-4.49822,286.874,-1.63565e-09,3.72898e-09,2.50621,878,265.861,0.25,-0.25,0.0735,-0.000196861,0.00216898,2.05355e-13,-0.000599801,-0.000167077,0.00389534,-6.07527e-14,1.38505e-13,-0.00138578,0,44.8281,-4.49822,286.874,-1.63565e-09,3.72898e-09,2.50621,878,265.861,0.25,-0.25,0.0735,-0.000196861,0.00216898,2.05355e-13,-0.000599801,-0.000167077,0.00389534,-6.07527e-14,1.38505e-13,-0.00138578,0,44.8281,-4.49822,286.874,-1.63565e-09,3.72898e-09,2.50621,878,265.861,0.25,-0.25,0.0735,-0.000196861,0.00216898,2.05355e-13,-0.000599801,-0.000167077,0.00389534,-6.07527e-14,1.38505e-13,-0.00138578,0,44.8281,-4.49822,286.874,-1.63565e-09,3.72898e-09,2.50621,878,265.861,0.25,-0.25,0.0735,-0.000196861,0.00216898,2.05355e-13,-0.000599801,-0.000167077,0.00389534,-6.07527e-14,1.38505e-13,-0.00138578,0,44.8281,-4.49822,286.874,-1.63565e-09,3.72898e-09,2.50621,878,0,0,0,0,0,0,0,0,0,0,0,0,0,0,0,0,0,0,0,0,0,1
stats,24,1,0.25,276.938,0.25,-0.25,0.0735,-0.000205063,0.00225935,2.13932e-13,-0.000624793,-0.000174038,0.00405765,-6.32822e-14,1.44277e-13,-0.00144352,0,46.6959,-4.68565,298.827,-1.70375e-09,3.88437e-09,2.61064,878,276.938,0.25,-0.25,0.0735,-0.000205063,0.00225935,2.13932e-13,-0.000624793,-0.000174038,0.00405765,-6.32822e-14,1.44277e-13,-0.00144352,0,46.6959,-4.68565,298.827,-1.70375e-09,3.88437e-09,2.61064,878,276.938,0.25,-0.25,0.0735,-0.000205063,0.00225935,2.13932e-13,-0.000624793,-0.000174038,0.00405765,-6.32822e-14,1.44277e-13,-0.00144352,0,46.6959,-4.68565,298.827,-1.70375e-09,3.88437e-09,2.61064,878,276.938,0.25,-0.25,0.0735,-0.000205063,0.00225935,2.13932e-13,-0.000624793,-0.000174038,0.00405765,-6.32822e-14,1.44277e-13,-0.00144352,0,46.6959,-4.68565,298.827,-1.70375e-09,3.88437e-09,2.61064,878,276.938,0.25,-0.25,0.0735,-0.000205063,0.00225935,2.13932e-13,-0.000624793,-0.000174038,0.00405765,-6.32822e-14,1.44277e-13,-0.00144352,0,46.6959,-4.68565,298.827,-1.70375e-09,3.88437e-09,2.61064,878,276.938,0.25,-0.25,0.0735,-0.000205063,0.00225935,2.13932e-13,-0.000624793,-0.000174038,0.00405765,-6.32822e-14,1.44277e-13,-0.00144352,0,46.6959,-4.68565,298.827,-1.70375e-09,3.88437e-09,2.61064,878,0,0,0,0,0,0,0,0,0,0,0,0,0,0,0,0,0,0,0,0,0,1
stats,25,1,0.26,288.016,0.25,-0.25,0.0735,-0.000213266,0.00234973,2.22504e-13,-0.000649784,-0.000181,0.00421995,-6.58124e-14,1.50048e-13,-0.00150126,0,48.5637,-4.87308,310.78,-1.77187e-09,4.03975e-09,2.71506,878,288.016,0.25,-0.25,0.0735,-0.000213266,0.00234973,2.22504e-13,-0.000649784,-0.000181,0.00421995,-6.58124e-14,1.50048e-13,-0.00150126,0,48.5637,-4.87308,310.78,-1.77187e-09,4.03975e-09,2.71506,878,288.016,0.25,-0.25,0.0735,-0.000213266,0.00234973,2.22504e-13,-0.000649784,-0.000181,0.00421995,-6.58124e-14,1.50048e-13,-0.00150126,0,48.5637,-4.87308,310.78,-1.77187e-09,4.03975e-09,2.71506,878,288.016,0.25,-0.25,0.0735,-0.000213266,0.00234973,2.22504e-13,-0.000649784,-0.000181,0.00421995,-6.58124e-14,1.50048e-13,-0.00150126,0,48.5637,-4.87308,310.78,-1.77187e-09,4.03975e-09,2.71506,878,288.016,0.25,-0.25,0.0735,-0.000213266,0.00234973,2.22504e-13,-0.000649784,-0.000181,0.00421995,-6.58124e-14,1.50048e-13,-0.00150126,0,48.5637,-4.87308,310.78,-1.77187e-09,4.03975e-09,2.71506,878,288.016,0.25,-0.25,0.0735,-0.000213266,0.00234973,2.22504e-13,-0.000649784,-0.000181,0.00421995,-6.58124e-14,1.50048e-13,-0.00150126,0,48.5637,-4.87308,310.78,-1.77187e-09,4.03975e-09,2.71506,878,0,0,0,0,0,0,0,0,0,0,0,0,0,0,0,0,0,0,0,0,0,1
stats,26,1,0.27,299.094,0.25,-0.25,0.0735,-0.000221468,0.0024401,2.31125e-13,-0.000674776,-0.000187961,0.00438226,-6.83425e-14,1.55819e-13,-0.001559,0,50.4316,-5.0605,322.733,-1.83999e-09,4.19513e-09,2.81949,878,299.094,0.25,-0.25,0.0735,-0.000221468,0.0024401,2.31125e-13,-0.000674776,-0.000187961,0.00438226,-6.83425e-14,1.55819e-13,-0.001559,0,50.4316,-5.0605,322.733,-1.83999e-09,4.19513e-09,2.81949,878,299.094,0.25,-0.25,0.0735,-0.000221468,0.0024401,2.31125e-13,-0.000674776,-0.000187961,0.00438226,-6.83425e-14,1.55819e-13,-0.001559,0,50.4316,-5.0605,322.733,-1.83999e-09,4.19513e-09,2.81949,878,299.094,0.25,-0.25,0.0735,-0.000221468,0.0024401,2.31125e-13,-0.000674776,-0.000187961,0.00438226,-6.83425e-14,1.55819e-13,-0.001559,0,50.4316,-5.0605,322.733,-1.83999e-09,4.19513e-09,2.81949,878,299.094,0.25,-0.25,0.0735,-0.000221468,0.0024401,2.31125e-13,-0.000674776,-0.000187961,0.00438226,-6.83425e-14,1.55819e-13,-0.001559,0,50.4316,-5.0605,322.733,-1.83999e-09,4.19513e-09,2.81949,878,299.094,0.25,-0.25,0.0735,-0.000221468,0.0024401,2.31125e-13,-0.000674776,-0.000187961,0.00438226,-6.83425e-14,1.55819e-13,-0.001559,0,50.4316,-5.0605,322.733,-1.83999e-09,4.19513e-09,2.81949,878,0,0,0,0,0,0,0,0,0,0,0,0,0,0,0,0,0,0,0,0,0,1
stats,27,1,0.28,310.171,0.25,-0.25,0.0735,-0.000229671,0.00253048,2.39764e-13,-0.000699768,-0.000194923,0.00454457,-7.08734e-14,1.6159e-13,-0.00161674,0,52.2994,-5.24793,334.687,-1.90813e-09,4.3505e-09,2.92391,878,310.171,0.25,-0.25,0.0735,-0.000229671,0.00253048,2.39764e-13,-0.000699768,-0.000194923,0.00454457,-7.08734e-14,1.6159e-13,-0.00161674,0,52.2994,-5.24793,334.687,-1.90813e-09,4.3505e-09,2.92391,878,310.171,0.25,-0.25,0.0735,-0.000229671,0.00253048,2.39764e-13,-0.000699768,-0.000194923,0.00454457,-7.08734e-14,1.6159e-13,-0.00161674,0,52.2994,-5.24793,334.687,-1.90813e-09,4.3505e-09,2.92391,878,310.171,0.25,-0.25,0.0735,-0.000229671,0.00253048,2.39764e-13,-0.000699768,-0.000194923,0.00454457,-7.08734e-14,1.6159e-13,-0.00161674,0,52.2994,-5.24793,334.687,-1.90813e-09,4.3505e-09,2.92391,878,310.171,0.25,-0.25,0.0735,-0.000229671,0.00253048,2.39764e-13,-0.000699768,-0.000194923,0.00454457,-7.08734e-14,1.6159e-13,-0.00161674,0,52.2994,-5.24793,334.687,-1.90813e-09,4.3505e-09,2.92391,878,310.171,0.25,-0.25,0.0735,-0.000229671,0.00253048,2.39764e-13,-0.000699768,-0.000194923,0.00454457,-7.08734e-14,1.6159e-13,-0.00161674,0,52.2994,-5.24793,334.687,-1.90813e-09,4.3505e-09,2.92391,878,0,0,0,0,0,0,0,0,0,0,0,0,0,0,0,0,0,0,0,0,0,1
stats,28,1,0.29,321.249,0.25,-0.25,0.0735,-0.000237873,0.00262085,2.48431e-13,-0.000724759,-0.000201885,0.00470687,-7.34019e-14,1.67362e-13,-0.00167448,0,54.1672,-5.43535,346.64,-1.9762e-09,4.50589e-09,3.02834,878,321.249,0.25,-0.25,0.0735,-0.000237873,0.00262085,2.48431e-13,-0.000724759,-0.000201885,0.00470687,-7.34019e-14,1.67362e-13,-0.00167448,0,54.1672,-5.43535,346.64,-1.9762e-09,4.50589e-09,3.02834,878,321.249,0.25,-0.25,0.0735,-0.000237873,0.00262085,2.48431e-13,-0.000724759,-0.000201885,0.00470687,-7.34019e-14,1.67362e-13,-0.00167448,0,54.1672,-5.43535,346.64,-1.9762e-09,4.50589e-09,3.02834,878,321.249,0.25,-0.25,0.0735,-0.000237873,0.00262085,2.48431e-13,-0.000724759,-0.000201885,0.00470687,-7.34019e-14,1.67362e-13,-0.00167448,0,54.1672,-5.43535,346.64,-1.9762e-09,4.50589e-09,3.02834,878,321.249,0.25,-0.25,0.0735,-0.000237873,0.00262085,2.48431e-13,-0.000724759,-0.000201885,0.00470687,-7.34019e-14,1.67362e-13,-0.00167448,0,54.1672,-5.43535,346.64,-1.9762e-09,4.50589e-09,3.02834,878,321.249,0.25,-0.25,0.0735,-0.000237873,0.00262085,2.48431e-13,-0.000724759,-0.000201885,0.00470687,-7.34019e-14,1.67362e-13,-0.00167448,0,54.1672,-5.43535,346.64,-1.9762e-09,4.50589e-09,3.02834,878,0,0,0,0,0,0,0,0,0,0,0,0,0,0,0,0,0,0,0,0,0,1
stats,29,1,0.3,332.326,0.25,-0.25,0.0735,-0.000246076,0.00271123,2.57025e-13,-0.000749751,-0.000208846,0.00486918,-7.59322e-14,1.73133e-13,-0.00173222,0,56.0351,-5.62278,358.593,-2.04433e-09,4.66127e-09,3.13276,878,332.326,0.25,-0.25,0.0735,-0.000246076,0.00271123,2.57025e-13,-0.000749751,-0.000208846,0.00486918,-7.59322e-14,1.73133e-13,-0.00173222,0,56.0351,-5.62278,358.593,-2.04433e-09,4.66127e-09,3.13276,878,332.326,0.25,-0.25,0.0735,-0.000246076,0.00271123,2.57025e-13,-0.000749751,-0.000208846,0.00486918,-7.59322e-14,1.73133e-13,-0.00173222,0,56.0351,-5.62278,358.593,-2.04433e-09,4.66127e-09,3.13276,878,332.326,0.25,-0.25,0.0735,-0.000246076,0.00271123,2.57025e-13,-0.000749751,-0.000208846,0.00486918,-7.59322e-14,1.73133e-13,-0.00173222,0,56.0351,-5.62278,358.593,-2.04433e-09,4.66127e-09,3.13276,878,332.326,0.25,-0.25,0.0735,-0.000246076,0.00271123,2.57025e-13,-0.000749751,-0.000208846,0.00486918,-7.59322e-14,1.73133e-13,-0.00173222,0,56.0351,-5.62278,358.593,-2.04433e-09,4.66127e-09,3.13276,878,332.326,0.25,-0.25,0.0735,-0.000246076,0.00271123,2.57025e-13,-0.000749751,-0.000208846,0.00486918,-7.59322e-14,1.73133e-13,-0.00173222,0,56.0351,-5.62278,358.593,-2.04433e-09,4.66127e-09,3.13276,878,0,0,0,0,0,0,0,0,0,0,0,0,0,0,0,0,0,0,0,0,0,1
stats,30,1,0.31,343.404,0.25,-0.25,0.0735,-0.000254279,0.0028016,2.65636e-13,-0.000774743,-0.000215808,0.00503148,-7.84614e-14,1.78904e-13,-0.00178996,0,57.9029,-5.81021,370.546,-2.11242e-09,4.81665e-09,3.23719,878,343.404,0.25,-0.25,0.0735,-0.000254279,0.0028016,2.65636e-13,-0.000774743,-0.000215808,0.00503148,-7.84614e-14,1.78904e-13,-0.00178996,0,57.9029,-5.81021,370.546,-2.11242e-09,4.81665e-09,3.23719,878,343.404,0.25,-0.25,0.0735,-0.000254279,0.0028016,2.65636e-13,-0.000774743,-0.000215808,0.00503148,-7.84614e-14,1.78904e-13,-0.00178996,0,57.9029,-5.81021,370.546,-2.11242e-09,4.81665e-09,3.23719,878,343.404,0.25,-0.25,0.0735,-0.000254279,0.0028016,2.65636e-13,-0.000774743,-0.000215808,0.00503148,-7.84614e-14,1.78904e-13,-0.00178996,0,57.9029,-5.81021,370.546,-2.11242e-09,4.81665e-09,3.23719,878,343.404,0.25,-0.25,0.0735,-0.000254279,0.0028016,2.65636e-13,-0.000774743,-0.000215808,0.00503148,-7.84614e-14,1.78904e-13,-0.00178996,0,57.9029,-5.81021,370.546,-2.11242e-09,4.81665e-09,3.23719,878,343.404,0.25,-0.25,0.0735,-0.000254279,0.0028016,2.65636e-13,-0.000774743,-0.000215808,0.00503148,-7.84614e-14,1.78904e-13,-0.00178996,0,57.9029,-5.81021,370.546,-2.11242e-09,4.81665e-09,3.23719,878,0,0,0,0,0,0,0,0,0,0,0,0,0,0,0,0,0,0,0,0,0,1
stats,31,1,0.32,354.481,0.25,-0.25,0.0735,-0.000262481,0.00289197,2.74266e-13,-0.000799735,-0.000222769,0.00519379,-8.09918e-14,1.84675e-13,-0.0018477,0,59.7707,-5.99763,382.499,-2.18055e-09,4.97203e-09,3.34162,878,354.481,0.25,-0.25,0.0735,-0.000262481,0.00289197,2.74266e-13,-0.000799735,-0.000222769,0.00519379,-8.09918e-14,1.84675e-13,-0.0018477,0,59.7707,-5.99763,382.499,-2.18055e-09,4.97203e-09,3.34162,878,354.481,0.25,-0.25,0.0735,-0.000262481,0.00289197,2.74266e-13,-0.000799735,-0.000222769,0.00519379,-8.09918e-14,1.84675e-13,-0.0018477,0,59.7707,-5.99763,382.499,-2.18055e-09,4.97203e-09,3.34162,878,354.481,0.25,-0.25,0.0735,-0.000262481,0.00289197,2.74266e-13,-0.000799735,-0.000222769,0.00519379,-8.09918e-14,1.84675e-13,-0.0018477,0,59.7707,-5.99763,382.499,-2.18055e-09,4.97203e-09,3.34162,878,354.481,0.25,-0.25,0.0735,-0.000262481,0.00289197,2.74266e-13,-0.000799735,-0.000222769,0.00519379,-8.09918e-14,1.84675e-13,-0.0018477,0,59.7707,-5.99763,382.499,-2.18055e-09,4.97203e-09,3.34162,878,354.481,0.25,-0.25,0.0735,-0.000262481,0.00289197,2.74266e-13,-0.000799735,-0.000222769,0.00519379,-8.09918e-14,1.84675e-13,-0.0018477,0,59.7707,-5.99763,382.499,-2.18055e-09,4.97203e-09,3.34162,878,0,0,0,0,0,0,0,0,0,0,0,0,0,0,0,0,0,0,0,0,0,1
stats,32,1,0.33,365.559,0.25,-0.25,0.0735,-0.000270684,0.00298235,2.82888e-13,-0.000824726,-0.000229731,0.00535609,-8.35227e-14,1.90446e-13,-0.00190544,0,61.6386,-6.18506,394.452,-2.24869e-09,5.1274e-09,3.44604,878,365.559,0.25,-0.25,0.0735,-0.000270684,0.00298235,2.82888e-13,-0.000824726,-0.000229731,0.00535609,-8.35227e-14,1.90446e-13,-0.00190544,0,61.6386,-6.18506,394.452,-2.24869e-09,5.1274e-09,3.44604,878,365.559,0.25,-0.25,0.0735,-0.000270684,0.00298235,2.82888e-13,-0.000824726,-0.000229731,0.00535609,-8.35227e-14,1.90446e-13,-0.00190544,0,61.6386,-6.18506,394.452,-2.24869e-09,5.1274e-09,3.44604,878,365.559,0.25,-0.25,0.0735,-0.000270684,0.00298235,2.82888e-13,-0.000824726,-0.000229731,0.00535609,-8.35227e-14,1.90446e-13,-0.00190544,0,61.6386,-6.18506,394.452,-2.24869e-09,5.1274e-09,3.44604,878,365.559,0.25,-0.25,0.0735,-0.000270684,0.00298235,2.82888e-13,-0.000824726,-0.000229731,0.00535609,-8.35227e-14,1.90446e-13,-0.00190544,0,61.6386,-6.18506,394.452,-2.24869e-09,5.1274e-09,3.44604,878,365.559,0.25,-0.25,0.0735,-0.000270684,0.00298235,2.82888e-13,-0.000824726,-0.000229731,0.00535609,-8.35227e-14,1.90446e-13,-0.00190544,0,61.6386,-6.18506,394.452,-2.24869e-09,5.1274e-09,3.44604,878,0,0,0,0,0,0,0,0,0,0,0,0,0,0,0,0,0,0,0,0,0,1
stats,33,1,0.34,376.639,0.25,-0.25,0.0735,-0.000278965,0.00307273,-1.54033e-12,-0.000849726,-0.000236701,0.00551844,-1.25404e-12,-3.46692e-13,-0.0019632,0,63.5067,-6.37271,406.408,-3.37625e-08,-9.334e-09,3.55044,878,376.639,0.25,-0.25,0.0735,-0.000278965,0.00307273,-1.54033e-12,-0.000849726,-0.000236701,0.00551844,-1.25404e-12,-3.46692e-13,-0.0019632,0,63.5067,-6.37271,406.408,-3.37625e-08,-9.334e-09,3.55044,878,376.639,0.25,-0.25,0.0735,-0.000278965,0.00307273,-1.54033e-12,-0.000849726,-0.000236701,0.00551844,-1.25404e-12,-3.46692e-13,-0.0019632,0,63.5067,-6.37271,406.408,-3.37625e-08,-9.334e-09,3.55044,878,376.639,0.25,-0.25,0.0735,-0.000278965,0.00307273,-1.54033e-12,-0.000849726,-0.000236701,0.00551844,-1.25404e-12,-3.46692e-13,-0.0019632,0,63.5067,-6.37271,406.408,-3.37625e-08,-9.334e-09,3.55044,878,376.639,0.25,-0.25,0.0735,-0.000278965,0.00307273,-1.54033e-12,-0.000849726,-0.000236701,0.00551844,-1.25404e-12,-3.46692e-13,-0.0019632,0,63.5067,-6.37271,406.408,-3.37625e-08,-9.334e-09,3.55044,878,376.639,0.25,-0.25,0.0735,-0.000278965,0.00307273,-1.54033e-12,-0.000849726,-0.000236701,0.00551844,-1.25404e-12,-3.46692e-13,-0.0019632,0,63.5067,-6.37271,406.408,-3.37625e-08,-9.334e-09,3.55044,878,0,0,0,0,0,0,0,0,0,0,0,0,0,0,0,0,0,0,0,0,0,1
stats,34,1,0.35,386.851,0.25,-0.25,0.0735,-0.000287726,0.00316372,4.57187e-11,-0.000878305,-0.000242347,0.00568528,1.68895e-10,6.50653e-10,-0.00202318,1.59527e-05,65.7395,-6.45362,417.684,-2.46579e-05,-5.15154e-05,3.74092,878,386.851,0.25,-0.25,0.0735,-0.000287726,0.00316372,4.57187e-11,-0.000878305,-0.000242347,0.00568528,1.68895e-10,6.50653e-10,-0.00202318,1.59527e-05,65.7395,-6.45362,417.684,-2.46579e-05,-5.15154e-05,3.74092,878,386.851,0.25,-0.25,0.0735,-0.000287726,0.00316372,4.57187e-11,-0.000878305,-0.000242347,0.00568528,1.68895e-10,6.50653e-10,-0.00202318,1.59527e-05,65.7395,-6.45362,417.684,-2.46579e-05,-5.15154e-05,3.74092,878,386.851,0.25,-0.25,0.0735,-0.000287726,0.00316372,4.57187e-11,-0.000878305,-0.000242347,0.00568528,1.68895e-10,6.50653e-10,-0.00202318,1.59527e-05,65.7395,-6.45362,417.684,-2.46579e-05,-5.15154e-05,3.74092,878,386.851,0.25,-0.25,0.0735,-0.000287726,0.00316372,4.57187e-11,-0.000878305,-0.000242347,0.00568528,1.68895e-10,6.50653e-10,-0.00202318,1.59527e-05,65.7395,-6.45362,417.684,-2.46579e-05,-5.15154e-05,3.74092,878,386.851,0.25,-0.25,0.0735,-0.000287726,0.00316372,4.57187e-11,-0.000878305,-0.000242347,0.00568528,1.68895e-10,6.50653e-10,-0.00202318,1.59527e-05,65.7395,-6.45362,417.684,-2.46579e-05,-5.15154e-05,3.74092,878,0,0,0,0,0,0,0,0,0,0,0,0,0,0,0,0,0,0,0,0,0,1
stats,35,1,0.36,396.215,0.25,-0.25,0.0735,-0.000296812,0.00325531,1.76872e-10,-0.000910361,-0.000248465,0.00585789,8.63066e-10,2.57179e-09,-0.00208654,4.92656e-05,68.4141,-6.51456,428.292,-6.44633e-05,-0.000134647,3.96659,878,396.215,0.25,-0.25,0.0735,-0.000296812,0.00325531,1.76872e-10,-0.000910361,-0.000248465,0.00585789,8.63066e-10,2.57179e-09,-0.00208654,4.92656e-05,68.4141,-6.51456,428.292,-6.44633e-05,-0.000134647,3.96659,878,396.215,0.25,-0.25,0.0735,-0.000296812,0.00325531,1.76872e-10,-0.000910361,-0.000248465,0.00585789,8.63066e-10,2.57179e-09,-0.00208654,4.92656e-05,68.4141,-6.51456,428.292,-6.44633e-05,-0.000134647,3.96659,878,396.215,0.25,-0.25,0.0735,-0.000296812,0.00325531,1.76872e-10,-0.000910361,-0.000248465,0.00585789,8.63066e-10,2.57179e-09,-0.00208654,4.92656e-05,68.4141,-6.51456,428.292,-6.44633e-05,-0.000134647,3.96659,878,396.215,0.25,-0.25,0.0735,-0.000296812,0.00325531,1.76872e-10,-0.000910361,-0.000248465,0.00585789,8.63066e-10,2.57179e-09,-0.00208654,4.92656e-05,68.4141,-6.51456,428.292,-6.44633e-05,-0.000134647,3.96659,878,396.215,0.25,-0.25,0.0735,-0.000296812,0.00325531,1.76872e-10,-0.000910361,-0.000248465,0.00585789,8.63066e-10,2.57179e-09,-0.00208654,4.92656e-05,68.4141,-6.51456,428.292,-6.44633e-05,-0.000134647,3.96659,878,0,0,0,0,0,0,0,0,0,0,0,0,0,0,0,0,0,0,0,0,0,1
stats,36,1,0.37,404.406,0.25,-0.25,0.0735,-0.000306027,0.00334657,3.31755e-10,-0.000945873,-0.000255749,0.00603651,2.24177e-09,5.50404e-09,-0.00215346,0.000104362,71.7154,-6.69601,438.002,-0.00012142,-0.000269107,4.2888,878,404.406,0.25,-0.25,0.0735,-0.000306027,0.00334657,3.31755e-10,-0.000945873,-0.000255749,0.00603651,2.24177e-09,5.50404e-09,-0.00215346,0.000104362,71.7154,-6.69601,438.002,-0.00012142,-0.000269107,4.2888,878,404.406,0.25,-0.25,0.0735,-0.000306027,0.00334657,3.31755e-10,-0.000945873,-0.000255749,0.00603651,2.24177e-09,5.50404e-09,-0.00215346,0.000104362,71.7154,-6.69601,438.002,-0.00012142,-0.000269107,4.2888,878,404.406,0.25,-0.25,0.0735,-0.000306027,0.00334657,3.31755e-10,-0.000945873,-0.000255749,0.00603651,2.24177e-09,5.50404e-09,-0.00215346,0.000104362,71.7154,-6.69601,438.002,-0.00012142,-0.000269107,4.2888,878,404.406,0.25,-0.25,0.0735,-0.000306027,0.00334657,3.31755e-10,-0.000945873,-0.000255749,0.00603651,2.24177e-09,5.50404e-09,-0.00215346,0.000104362,71.7154,-6.69601,438.002,-0.00012142,-0.000269107,4.2888,878,404.406,0.25,-0.25,0.0735,-0.000306027,0.00334657,3.31755e-10,-0.000945873,-0.000255749,0.00603651,2.24177e-09,5.50404e-09,-0.00215346,0.000104362,71.7154,-6.69601,438.002,-0.00012142,-0.000269107,4.2888,878,0,0,0,0,0,0,0,0,0,0,0,0,0,0,0,0,0,0,0,0,0,1
stats,37,1,0.38,412.621,0.25,-0.25,0.0735,-0.00031528,0.00343764,5.26927e-10,-0.000984029,-0.000263263,0.00622108,4.37196e-09,9.2985e-09,-0.00222366,0.000165144,75.069,-6.7779,447.72,-0.000164805,-0.000391164,4.55374,878,412.621,0.25,-0.25,0.0735,-0.00031528,0.00343764,5.26927e-10,-0.000984029,-0.000263263,0.00622108,4.37196e-09,9.2985e-09,-0.00222366,0.000165144,75.069,-6.7779,447.72,-0.000164805,-0.000391164,4.55374,878,412.621,0.25,-0.25,0.0735,-0.00031528,0.00343764,5.26927e-10,-0.000984029,-0.000263263,0.00622108,4.37196e-09,9.2985e-09,-0.00222366,0.000165144,75.069,-6.7779,447.72,-0.000164805,-0.000391164,4.55374,878,412.621,0.25,-0.25,0.0735,-0.00031528,0.00343764,5.26927e-10,-0.000984029,-0.000263263,0.00622108,4.37196e-09,9.2985e-09,-0.00222366,0.000165144,75.069,-6.7779,447.72,-0.000164805,-0.000391164,4.55374,878,412.621,0.25,-0.25,0.0735,-0.00031528,0.00343764,5.26927e-10,-0.000984029,-0.000263263,0.00622108,4.37196e-09,9.2985e-09,-0.00222366,0.000165144,75.069,-6.7779,447.72,-0.000164805,-0.000391164,4.55374,878,412.621,0.25,-0.25,0.0735,-0.00031528,0.00343764,5.26927e-10,-0.000984029,-0.000263263,0.00622108,4.37196e-09,9.2985e-09,-0.00222366,0.000165144,75.069,-6.7779,447.72,-0.000164805,-0.000391164,4.55374,878,0,0,0,0,0,0,0,0,0,0,0,0,0,0,0,0,0,0,0,0,0,1
stats,38,1,0.39,420.408,0.25,-0.25,0.0735,-0.000324829,0.00352888,7.5209e-10,-0.00102412,-0.000269723,0.00640904,6.787e-09,1.35334e-08,-0.00229592,0.000235233,78.6222,-6.82617,457.096,-0.000212986,-0.00052425,4.85494,878,420.408,0.25,-0.25,0.0735,-0.000324829,0.00352888,7.5209e-10,-0.00102412,-0.000269723,0.00640904,6.787e-09,1.35334e-08,-0.00229592,0.000235233,78.6222,-6.82617,457.096,-0.000212986,-0.00052425,4.85494,878,420.408,0.25,-0.25,0.0735,-0.000324829,0.00352888,7.5209e-10,-0.00102412,-0.000269723,0.00640904,6.787e-09,1.35334e-08,-0.00229592,0.000235233,78.6222,-6.82617,457.096,-0.000212986,-0.00052425,4.85494,878,420.408,0.25,-0.25,0.0735,-0.000324829,0.00352888,7.5209e-10,-0.00102412,-0.000269723,0.00640904,6.787e-09,1.35334e-08,-0.00229592,0.000235233,78.6222,-6.82617,457.096,-0.000212986,-0.00052425,4.85494,878,420.408,0.25,-0.25,0.0735,-0.000324829,0.00352888,7.5209e-10,-0.00102412,-0.000269723,0.00640904,6.787e-09,1.35334e-08,-0.00229592,0.000235233,78.6222,-6.82617,457.096,-0.000212986,-0.00052425,4.85494,878,420.408,0.25,-0.25,0.0735,-0.000324829,0.00352888,7.5209e-10,-0.00102412,-0.000269723,0.00640904,6.787e-09,1.35334e-08,-0.00229592,0.000235233,78.6222,-6.82617,457.096,-0.000212986,-0.00052425,4.85494,878,0,0,0,0,0,0,0,0,0,0,0,0,0,0,0,0,0,0,0,0,0,1
stats,39,1,0.4,427.772,0.25,-0.25,0.0735,-0.000334697,0.00362044,9.94618e-10,-0.00106633,-0.000274057,0.00660016,9.36698e-09,1.81259e-08,-0.00236984,0.000314253,82.339,-6.80677,466.14,-0.000268201,-0.000665273,5.21774,878,427.772,0.25,-0.25,0.0735,-0.000334697,0.00362044,9.94618e-10,-0.00106633,-0.000274057,0.00660016,9.36698e-09,1.81259e-08,-0.00236984,0.000314253,82.339,-6.80677,466.14,-0.000268201,-0.000665273,5.21774,878,427.772,0.25,-0.25,0.0735,-0.000334697,0.00362044,9.94618e-10,-0.00106633,-0.000274057,0.00660016,9.36698e-09,1.81259e-08,-0.00236984,0.000314253,82.339,-6.80677,466.14,-0.000268201,-0.000665273,5.21774,878,427.772,0.25,-0.25,0.0735,-0.000334697,0.00362044,9.94618e-10,-0.00106633,-0.000274057,0.00660016,9.36698e-09,1.81259e-08,-0.00236984,0.000314253,82.339,-6.80677,466.14,-0.000268201,-0.000665273,5.21774,878,427.772,0.25,-0.25,0.0735,-0.000334697,0.00362044,9.94618e-10,-0.00106633,-0.000274057,0.00660016,9.36698e-09,1.81259e-08,-0.00236984,0.000314253,82.339,-6.80677,466.14,-0.000268201,-0.000665273,5.21774,878,427.772,0.25,-0.25,0.0735,-0.000334697,0.00362044,9.94618e-10,-0.00106633,-0.000274057,0.00660016,9.36698e-09,1.81259e-08,-0.00236984,0.000314253,82.339,-6.80677,466.14,-0.000268201,-0.000665273,5.21774,878,0,0,0,0,0,0,0,0,0,0,0,0,0,0,0,0,0,0,0,0,0,1
stats,40,1,0.41,434.748,0.25,-0.25,0.0735,-0.000344836,0.00371218,1.26806e-09,-0.00111035,-0.000277358,0.00679442,1.21854e-08,2.30313e-08,-0.00244579,0.000401856,86.2111,-6.75517,474.865,-0.000327439,-0.000811979,5.62047,878,434.748,0.25,-0.25,0.0735,-0.000344836,0.00371218,1.26806e-09,-0.00111035,-0.000277358,0.00679442,1.21854e-08,2.30313e-08,-0.00244579,0.000401856,86.2111,-6.75517,474.865,-0.000327439,-0.000811979,5.62047,878,434.748,0.25,-0.25,0.0735,-0.000344836,0.00371218,1.26806e-09,-0.00111035,-0.000277358,0.00679442,1.21854e-08,2.30313e-08,-0.00244579,0.000401856,86.2111,-6.75517,474.865,-0.000327439,-0.000811979,5.62047,878,434.748,0.25,-0.25,0.0735,-0.000344836,0.00371218,1.26806e-09,-0.00111035,-0.000277358,0.00679442,1.21854e-08,2.30313e-08,-0.00244579,0.000401856,86.2111,-6.75517,474.865,-0.000327439,-0.000811979,5.62047,878,434.748,0.25,-0.25,0.0735,-0.000344836,0.00371218,1.26806e-09,-0.00111035,-0.000277358,0.00679442,1.21854e-08,2.30313e-08,-0.00244579,0.000401856,86.2111,-6.75517,474.865,-0.000327439,-0.000811979,5.62047,878,434.748,0.25,-0.25,0.0735,-0.000344836,0.00371218,1.26806e-09,-0.00111035,-0.000277358,0.00679442,1.21854e-08,2.30313e-08,-0.00244579,0.000401856,86.2111,-6.75517,474.865,-0.000327439,-0.000811979,5.62047,878,0,0,0,0,0,0,0,0,0,0,0,0,0,0,0,0,0,0,0,0,0,1
stats,41,1,0.42,441.337,0.25,-0.25,0.0735,-0.000355418,0.00380434,1.553e-09,-0.0011563,-0.000277496,0.00699094,1.51368e-08,2.81409e-08,-0.0025231,0.000497123,90.1738,-6.61742,483.262,-0.000390858,-0.000961031,6.07899,878,441.337,0.25,-0.25,0.0735,-0.000355418,0.00380434,1.553e-09,-0.0011563,-0.000277496,0.00699094,1.51368e-08,2.81409e-08,-0.0025231,0.000497123,90.1738,-6.61742,483.262,-0.000390858,-0.000961031,6.07899,878,441.337,0.25,-0.25,0.0735,-0.000355418,0.00380434,1.553e-09,-0.0011563,-0.000277496,0.00699094,1.51368e-08,2.81409e-08,-0.0025231,0.000497123,90.1738,-6.61742,483.262,-0.000390858,-0.000961031,6.07899,878,441.337,0.25,-0.25,0.0735,-0.000355418,0.00380434,1.553e-09,-0.0011563,-0.000277496,0.00699094,1.51368e-08,2.81409e-08,-0.0025231,0.000497123,90.1738,-6.61742,483.262,-0.000390858,-0.000961031,6.07899,878,441.337,0.25,-0.25,0.0735,-0.000355418,0.00380434,1.553e-09,-0.0011563,-0.000277496,0.00699094,1.51368e-08,2.81409e-08,-0.0025231,0.000497123,90.1738,-6.61742,483.262,-0.000390858,-0.000961031,6.07899,878,441.337,0.25,-0.25,0.0735,-0.000355418,0.00380434,1.553e-09,-0.0011563,-0.000277496,0.00699094,1.51368e-08,2.81409e-08,-0.0025231,0.000497123,90.1738,-6.61742,483.262,-0.000390858,-0.000961031,6.07899,878,0,0,0,0,0,0,0,0,0,0,0,0,0,0,0,0,0,0,0,0,0,1
stats,42,1,0.43,447.578,0.25,-0.25,0.0735,-0.000366407,0.00389671,1.87466e-09,-0.00120383,-0.000276618,0.00719051,1.82826e-08,3.34538e-08,-0.00260251,0.000600431,94.2676,-6.45637,491.374,-0.000457073,-0.00111341,6.58526,878,447.578,0.25,-0.25,0.0735,-0.000366407,0.00389671,1.87466e-09,-0.00120383,-0.000276618,0.00719051,1.82826e-08,3.34538e-08,-0.00260251,0.000600431,94.2676,-6.45637,491.374,-0.000457073,-0.00111341,6.58526,878,447.578,0.25,-0.25,0.0735,-0.000366407,0.00389671,1.87466e-09,-0.00120383,-0.000276618,0.00719051,1.82826e-08,3.34538e-08,-0.00260251,0.000600431,94.2676,-6.45637,491.374,-0.000457073,-0.00111341,6.58526,878,447.578,0.25,-0.25,0.0735,-0.000366407,0.00389671,1.87466e-09,-0.00120383,-0.000276618,0.00719051,1.82826e-08,3.34538e-08,-0.00260251,0.000600431,94.2676,-6.45637,491.374,-0.000457073,-0.00111341,6.58526,878,447.578,0.25,-0.25,0.0735,-0.000366407,0.00389671,1.87466e-09,-0.00120383,-0.000276618,0.00719051,1.82826e-08,3.34538e-08,-0.00260251,0.000600431,94.2676,-6.45637,491.374,-0.000457073,-0.00111341,6.58526,878,447.578,0.25,-0.25,0.0735,-0.000366407,0.00389671,1.87466e-09,-0.00120383,-0.000276618,0.00719051,1.82826e-08,3.34538e-08,-0.00260251,0.000600431,94.2676,-6.45637,491.374,-0.000457073,-0.00111341,6.58526,878,0,0,0,0,0,0,0,0,0,0,0,0,0,0,0,0,0,0,0,0,0,1
stats,43,1,0.44,453.748,0.25,-0.25,0.0735,-0.000377615,0.00398904,2.18491e-09,-0.00125409,-0.000275015,0.00739336,2.16347e-08,3.90562e-08,-0.00268404,0.000708526,98.2335,-6.31863,499.349,-0.000520673,-0.00125095,7.07647,878,453.748,0.25,-0.25,0.0735,-0.000377615,0.00398904,2.18491e-09,-0.00125409,-0.000275015,0.00739336,2.16347e-08,3.90562e-08,-0.00268404,0.000708526,98.2335,-6.31863,499.349,-0.000520673,-0.00125095,7.07647,878,453.748,0.25,-0.25,0.0735,-0.000377615,0.00398904,2.18491e-09,-0.00125409,-0.000275015,0.00739336,2.16347e-08,3.90562e-08,-0.00268404,0.000708526,98.2335,-6.31863,499.349,-0.000520673,-0.00125095,7.07647,878,453.748,0.25,-0.25,0.0735,-0.000377615,0.00398904,2.18491e-09,-0.00125409,-0.000275015,0.00739336,2.16347e-08,3.90562e-08,-0.00268404,0.000708526,98.2335,-6.31863,499.349,-0.000520673,-0.00125095,7.07647,878,453.748,0.25,-0.25,0.0735,-0.000377615,0.00398904,2.18491e-09,-0.00125409,-0.000275015,0.00739336,2.16347e-08,3.90562e-08,-0.00268404,0.000708526,98.2335,-6.31863,499.349,-0.000520673,-0.00125095,7.07647,878,453.748,0.25,-0.25,0.0735,-0.000377615,0.00398904,2.18491e-09,-0.00125409,-0.000275015,0.00739336,2.16347e-08,3.90562e-08,-0.00268404,0.000708526,98.2335,-6.31863,499.349,-0.000520673,-0.00125095,7.07647,878,0,0,0,0,0,0,0,0,0,0,0,0,0,0,0,0,0,0,0,0,0,1
stats,44,1,0.45,460.349,0.25,-0.25,0.0735,-0.000389198,0.00408139,2.50444e-09,-0.00131061,-0.000272957,0.0076015,2.53789e-08,4.57395e-08,-0.00276817,0.000817238,101.596,-6.25373,507.449,-0.000566616,-0.00132897,7.42578,878,460.349,0.25,-0.25,0.0735,-0.000389198,0.00408139,2.50444e-09,-0.00131061,-0.000272957,0.0076015,2.53789e-08,4.57395e-08,-0.00276817,0.000817238,101.596,-6.25373,507.449,-0.000566616,-0.00132897,7.42578,878,460.349,0.25,-0.25,0.0735,-0.000389198,0.00408139,2.50444e-09,-0.00131061,-0.000272957,0.0076015,2.53789e-08,4.57395e-08,-0.00276817,0.000817238,101.596,-6.25373,507.449,-0.000566616,-0.00132897,7.42578,878,460.349,0.25,-0.25,0.0735,-0.000389198,0.00408139,2.50444e-09,-0.00131061,-0.000272957,0.0076015,2.53789e-08,4.57395e-08,-0.00276817,0.000817238,101.596,-6.25373,507.449,-0.000566616,-0.00132897,7.42578,878,460.349,0.25,-0.25,0.0735,-0.000389198,0.00408139,2.50444e-09,-0.00131061,-0.000272957,0.0076015,2.53789e-08,4.57395e-08,-0.00276817,0.000817238,101.596,-6.25373,507.449,-0.000566616,-0.00132897,7.42578,878,460.349,0.25,-0.25,0.0735,-0.000389198,0.00408139,2.50444e-09,-0.00131061,-0.000272957,0.0076015,2.53789e-08,4.57395e-08,-0.00276817,0.000817238,101.596,-6.25373,507.449,-0.000566616,-0.00132897,7.42578,878,0,0,0,0,0,0,0,0,0,0,0,0,0,0,0,0,0,0,0,0,0,1
stats,45,1,0.46,466.78,0.25,-0.25,0.0735,-0.000401524,0.00417439,2.94058e-09,-0.00137163,-0.000269979,0.00781444,2.93532e-08,5.30659e-08,-0.00285493,0.000933826,104.809,-6.09575,515.309,-0.000612928,-0.00138996,7.75314,878,466.78,0.25,-0.25,0.0735,-0.000401524,0.00417439,2.94058e-09,-0.00137163,-0.000269979,0.00781444,2.93532e-08,5.30659e-08,-0.00285493,0.000933826,104.809,-6.09575,515.309,-0.000612928,-0.00138996,7.75314,878,466.78,0.25,-0.25,0.0735,-0.000401524,0.00417439,2.94058e-09,-0.00137163,-0.000269979,0.00781444,2.93532e-08,5.30659e-08,-0.00285493,0.000933826,104.809,-6.09575,515.309,-0.000612928,-0.00138996,7.75314,878,466.78,0.25,-0.25,0.0735,-0.000401524,0.00417439,2.94058e-09,-0.00137163,-0.000269979,0.00781444,2.93532e-08,5.30659e-08,-0.00285493,0.000933826,104.809,-6.09575,515.309,-0.000612928,-0.00138996,7.75314,878,466.78,0.25,-0.25,0.0735,-0.000401524,0.00417439,2.94058e-09,-0.00137163,-0.000269979,0.00781444,2.93532e-08,5.30659e-08,-0.00285493,0.000933826,104.809,-6.09575,515.309,-0.000612928,-0.00138996,7.75314,878,466.78,0.25,-0.25,0.0735,-0.000401524,0.00417439,2.94058e-09,-0.00137163,-0.000269979,0.00781444,2.93532e-08,5.30659e-08,-0.00285493,0.000933826,104.809,-6.09575,515.309,-0.000612928,-0.00138996,7.75314,878,0,0,0,0,0,0,0,0,0,0,0,0,0,0,0,0,0,0,0,0,0,1
stats,46,1,0.47,473.222,0.25,-0.25,0.0735,-0.000414401,0.00426776,3.37935e-09,-0.00143601,-0.000265807,0.00803194,3.34935e-08,6.06216e-08,-0.00294389,0.00105519,107.877,-5.91681,523.134,-0.000656179,-0.00143683,8.08852,878,473.222,0.25,-0.25,0.0735,-0.000414401,0.00426776,3.37935e-09,-0.00143601,-0.000265807,0.00803194,3.34935e-08,6.06216e-08,-0.00294389,0.00105519,107.877,-5.91681,523.134,-0.000656179,-0.00143683,8.08852,878,473.222,0.25,-0.25,0.0735,-0.000414401,0.00426776,3.37935e-09,-0.00143601,-0.000265807,0.00803194,3.34935e-08,6.06216e-08,-0.00294389,0.00105519,107.877,-5.91681,523.134,-0.000656179,-0.00143683,8.08852,878,473.222,0.25,-0.25,0.0735,-0.000414401,0.00426776,3.37935e-09,-0.00143601,-0.000265807,0.00803194,3.34935e-08,6.06216e-08,-0.00294389,0.00105519,107.877,-5.91681,523.134,-0.000656179,-0.00143683,8.08852,878,473.222,0.25,-0.25,0.0735,-0.000414401,0.00426776,3.37935e-09,-0.00143601,-0.000265807,0.00803194,3.34935e-08,6.06216e-08,-0.00294389,0.00105519,107.877,-5.91681,523.134,-0.000656179,-0.00143683,8.08852,878,473.222,0.25,-0.25,0.0735,-0.000414401,0.00426776,3.37935e-09,-0.00143601,-0.000265807,0.00803194,3.34935e-08,6.06216e-08,-0.00294389,0.00105519,107.877,-5.91681,523.134,-0.000656179,-0.00143683,8.08852,878,0,0,0,0,0,0,0,0,0,0,0,0,0,0,0,0,0,0,0,0,0,1
stats,47,1,0.48,479.545,0.25,-0.25,0.0735,-0.000427652,0.00436141,3.86746e-09,-0.00150297,-0.000260422,0.00825291,3.77858e-08,6.84144e-08,-0.0030349,0.00118204,110.858,-5.7356,530.82,-0.00069776,-0.00147173,8.44712,878,479.545,0.25,-0.25,0.0735,-0.000427652,0.00436141,3.86746e-09,-0.00150297,-0.000260422,0.00825291,3.77858e-08,6.84144e-08,-0.0030349,0.00118204,110.858,-5.7356,530.82,-0.00069776,-0.00147173,8.44712,878,479.545,0.25,-0.25,0.0735,-0.000427652,0.00436141,3.86746e-09,-0.00150297,-0.000260422,0.00825291,3.77858e-08,6.84144e-08,-0.0030349,0.00118204,110.858,-5.7356,530.82,-0.00069776,-0.00147173,8.44712,878,479.545,0.25,-0.25,0.0735,-0.000427652,0.00436141,3.86746e-09,-0.00150297,-0.000260422,0.00825291,3.77858e-08,6.84144e-08,-0.0030349,0.00118204,110.858,-5.7356,530.82,-0.00069776,-0.00147173,8.44712,878,479.545,0.25,-0.25,0.0735,-0.000427652,0.00436141,3.86746e-09,-0.00150297,-0.000260422,0.00825291,3.77858e-08,6.84144e-08,-0.0030349,0.00118204,110.858,-5.7356,530.82,-0.00069776,-0.00147173,8.44712,878,479.545,0.25,-0.25,0.0735,-0.000427652,0.00436141,3.86746e-09,-0.00150297,-0.000260422,0.00825291,3.77858e-08,6.84144e-08,-0.0030349,0.00118204,110.858,-5.7356,530.82,-0.00069776,-0.00147173,8.44712,878,0,0,0,0,0,0,0,0,0,0,0,0,0,0,0,0,0,0,0,0,0,1
stats,48,1,0.49,484.988,0.25,-0.25,0.0735,-0.000441555,0.00445494,4.33729e-09,-0.00157608,-0.000255301,0.00847942,4.26804e-08,7.70584e-08,-0.00312882,0.00132713,113.867,-5.54269,537.714,-0.000751886,-0.00154239,8.952,878,484.988,0.25,-0.25,0.0735,-0.000441555,0.00445494,4.33729e-09,-0.00157608,-0.000255301,0.00847942,4.26804e-08,7.70584e-08,-0.00312882,0.00132713,113.867,-5.54269,537.714,-0.000751886,-0.00154239,8.952,878,484.988,0.25,-0.25,0.0735,-0.000441555,0.00445494,4.33729e-09,-0.00157608,-0.000255301,0.00847942,4.26804e-08,7.70584e-08,-0.00312882,0.00132713,113.867,-5.54269,537.714,-0.000751886,-0.00154239,8.952,878,484.988,0.25,-0.25,0.0735,-0.000441555,0.00445494,4.33729e-09,-0.00157608,-0.000255301,0.00847942,4.26804e-08,7.70584e-08,-0.00312882,0.00132713,113.867,-5.54269,537.714,-0.000751886,-0.00154239,8.952,878,484.988,0.25,-0.25,0.0735,-0.000441555,0.00445494,4.33729e-09,-0.00157608,-0.000255301,0.00847942,4.26804e-08,7.70584e-08,-0.00312882,0.00132713,113.867,-5.54269,537.714,-0.000751886,-0.00154239,8.952,878,484.988,0.25,-0.25,0.0735,-0.000441555,0.00445494,4.33729e-09,-0.00157608,-0.000255301,0.00847942,4.26804e-08,7.70584e-08,-0.00312882,0.00132713,113.867,-5.54269,537.714,-0.000751886,-0.00154239,8.952,878,0,0,0,0,0,0,0,0,0,0,0,0,0,0,0,0,0,0,0,0,0,1
stats,49,1,0.5,489.057,0.25,-0.25,0.0735,-0.000456201,0.00454871,4.85307e-09,-0.0016556,-0.000251522,0.00871305,4.81409e-08,8.7419e-08,-0.00322773,0.00149895,117.07,-5.16855,543.43,-0.000840121,-0.00167867,9.68842,878,489.057,0.25,-0.25,0.0735,-0.000456201,0.00454871,4.85307e-09,-0.0016556,-0.000251522,0.00871305,4.81409e-08,8.7419e-08,-0.00322773,0.00149895,117.07,-5.16855,543.43,-0.000840121,-0.00167867,9.68842,878,489.057,0.25,-0.25,0.0735,-0.000456201,0.00454871,4.85307e-09,-0.0016556,-0.000251522,0.00871305,4.81409e-08,8.7419e-08,-0.00322773,0.00149895,117.07,-5.16855,543.43,-0.000840121,-0.00167867,9.68842,878,489.057,0.25,-0.25,0.0735,-0.000456201,0.00454871,4.85307e-09,-0.0016556,-0.000251522,0.00871305,4.81409e-08,8.7419e-08,-0.00322773,0.00149895,117.07,-5.16855,543.43,-0.000840121,-0.00167867,9.68842,878,489.057,0.25,-0.25,0.0735,-0.000456201,0.00454871,4.85307e-09,-0.0016556,-0.000251522,0.00871305,4.81409e-08,8.7419e-08,-0.00322773,0.00149895,117.07,-5.16855,543.43,-0.000840121,-0.00167867,9.68842,878,489.057,0.25,-0.25,0.0735,-0.000456201,0.00454871,4.85307e-09,-0.0016556,-0.000251522,0.00871305,4.81409e-08,8.7419e-08,-0.00322773,0.00149895,117.07,-5.16855,543.43,-0.000840121,-0.00167867,9.68842,878,0,0,0,0,0,0,0,0,0,0,0,0,0,0,0,0,0,0,0,0,0,1
stats,50,1,0.51,493.78,0.25,-0.25,0.0735,-0.000471711,0.00464234,5.49585e-09,-0.00174212,-0.000251704,0.00895692,5.45305e-08,9.95574e-08,-0.00333414,0.00167433,119.697,-5.01024,549.358,-0.000896834,-0.00174647,10.0475,878,493.78,0.25,-0.25,0.0735,-0.000471711,0.00464234,5.49585e-09,-0.00174212,-0.000251704,0.00895692,5.45305e-08,9.95574e-08,-0.00333414,0.00167433,119.697,-5.01024,549.358,-0.000896834,-0.00174647,10.0475,878,493.78,0.25,-0.25,0.0735,-0.000471711,0.00464234,5.49585e-09,-0.00174212,-0.000251704,0.00895692,5.45305e-08,9.95574e-08,-0.00333414,0.00167433,119.697,-5.01024,549.358,-0.000896834,-0.00174647,10.0475,878,493.78,0.25,-0.25,0.0735,-0.000471711,0.00464234,5.49585e-09,-0.00174212,-0.000251704,0.00895692,5.45305e-08,9.95574e-08,-0.00333414,0.00167433,119.697,-5.01024,549.358,-0.000896834,-0.00174647,10.0475,878,493.78,0.25,-0.25,0.0735,-0.000471711,0.00464234,5.49585e-09,-0.00174212,-0.000251704,0.00895692,5.45305e-08,9.95574e-08,-0.00333414,0.00167433,119.697,-5.01024,549.358,-0.000896834,-0.00174647,10.0475,878,493.78,0.25,-0.25,0.0735,-0.000471711,0.00464234,5.49585e-09,-0.00174212,-0.000251704,0.00895692,5.45305e-08,9.95574e-08,-0.00333414,0.00167433,119.697,-5.01024,549.358,-0.000896834,-0.00174647,10.0475,878,0,0,0,0,0,0,0,0,0,0,0,0,0,0,0,0,0,0,0,0,0,1
stats,51,1,0.52,498.432,0.25,-0.25,0.0735,-0.000488304,0.00473614,6.25194e-09,-0.00183707,-0.000252853,0.00921193,6.16356e-08,1.137e-07,-0.0034473,0.00186336,122.011,-4.85824,555.021,-0.000949339,-0.0017889,10.2768,878,498.432,0.25,-0.25,0.0735,-0.000488304,0.00473614,6.25194e-09,-0.00183707,-0.000252853,0.00921193,6.16356e-08,1.137e-07,-0.0034473,0.00186336,122.011,-4.85824,555.021,-0.000949339,-0.0017889,10.2768,878,498.432,0.25,-0.25,0.0735,-0.000488304,0.00473614,6.25194e-09,-0.00183707,-0.000252853,0.00921193,6.16356e-08,1.137e-07,-0.0034473,0.00186336,122.011,-4.85824,555.021,-0.000949339,-0.0017889,10.2768,878,498.432,0.25,-0.25,0.0735,-0.000488304,0.00473614,6.25194e-09,-0.00183707,-0.000252853,0.00921193,6.16356e-08,1.137e-07,-0.0034473,0.00186336,122.011,-4.85824,555.021,-0.000949339,-0.0017889,10.2768,878,498.432,0.25,-0.25,0.0735,-0.000488304,0.00473614,6.25194e-09,-0.00183707,-0.000252853,0.00921193,6.16356e-08,1.137e-07,-0.0034473,0.00186336,122.011,-4.85824,555.021,-0.000949339,-0.0017889,10.2768,878,498.432,0.25,-0.25,0.0735,-0.000488304,0.00473614,6.25194e-09,-0.00183707,-0.000252853,0.00921193,6.16356e-08,1.137e-07,-0.0034473,0.00186336,122.011,-4.85824,555.021,-0.000949339,-0.0017889,10.2768,878,0,0,0,0,0,0,0,0,0,0,0,0,0,0,0,0,0,0,0,0,0,1
stats,52,1,0.53,502.869,0.25,-0.25,0.0735,-0.00050592,0.00483036,7.18862e-09,-0.0019399,-0.000255222,0.00947643,6.94887e-08,1.29371e-07,-0.00356644,0.00206633,124.039,-4.68701,560.303,-0.000997246,-0.00182157,10.408,878,502.869,0.25,-0.25,0.0735,-0.00050592,0.00483036,7.18862e-09,-0.0019399,-0.000255222,0.00947643,6.94887e-08,1.29371e-07,-0.00356644,0.00206633,124.039,-4.68701,560.303,-0.000997246,-0.00182157,10.408,878,502.869,0.25,-0.25,0.0735,-0.00050592,0.00483036,7.18862e-09,-0.0019399,-0.000255222,0.00947643,6.94887e-08,1.29371e-07,-0.00356644,0.00206633,124.039,-4.68701,560.303,-0.000997246,-0.00182157,10.408,878,502.869,0.25,-0.25,0.0735,-0.00050592,0.00483036,7.18862e-09,-0.0019399,-0.000255222,0.00947643,6.94887e-08,1.29371e-07,-0.00356644,0.00206633,124.039,-4.68701,560.303,-0.000997246,-0.00182157,10.408,878,502.869,0.25,-0.25,0.0735,-0.00050592,0.00483036,7.18862e-09,-0.0019399,-0.000255222,0.00947643,6.94887e-08,1.29371e-07,-0.00356644,0.00206633,124.039,-4.68701,560.303,-0.000997246,-0.00182157,10.408,878,502.869,0.25,-0.25,0.0735,-0.00050592,0.00483036,7.18862e-09,-0.0019399,-0.000255222,0.00947643,6.94887e-08,1.29371e-07,-0.00356644,0.00206633,124.039,-4.68701,560.303,-0.000997246,-0.00182157,10.408,878,0,0,0,0,0,0,0,0,0,0,0,0,0,0,0,0,0,0,0,0,0,1
stats,53,1,0.54,507.337,0.25,-0.25,0.0735,-0.000524159,0.00492472,8.12175e-09,-0.00204526,-0.000257303,0.00974375,7.7478e-08,1.45378e-07,-0.00368706,0.00227208,125.896,-4.51786,565.555,-0.00104206,-0.00185203,10.5319,878,507.337,0.25,-0.25,0.0735,-0.000524159,0.00492472,8.12175e-09,-0.00204526,-0.000257303,0.00974375,7.7478e-08,1.45378e-07,-0.00368706,0.00227208,125.896,-4.51786,565.555,-0.00104206,-0.00185203,10.5319,878,507.337,0.25,-0.25,0.0735,-0.000524159,0.00492472,8.12175e-09,-0.00204526,-0.000257303,0.00974375,7.7478e-08,1.45378e-07,-0.00368706,0.00227208,125.896,-4.51786,565.555,-0.00104206,-0.00185203,10.5319,878,507.337,0.25,-0.25,0.0735,-0.000524159,0.00492472,8.12175e-09,-0.00204526,-0.000257303,0.00974375,7.7478e-08,1.45378e-07,-0.00368706,0.00227208,125.896,-4.51786,565.555,-0.00104206,-0.00185203,10.5319,878,507.337,0.25,-0.25,0.0735,-0.000524159,0.00492472,8.12175e-09,-0.00204526,-0.000257303,0.00974375,7.7478e-08,1.45378e-07,-0.00368706,0.00227208,125.896,-4.51786,565.555,-0.00104206,-0.00185203,10.5319,878,507.337,0.25,-0.25,0.0735,-0.000524159,0.00492472,8.12175e-09,-0.00204526,-0.000257303,0.00974375,7.7478e-08,1.45378e-07,-0.00368706,0.00227208,125.896,-4.51786,565.555,-0.00104206,-0.00185203,10.5319,878,0,0,0,0,0,0,0,0,0,0,0,0,0,0,0,0,0,0,0,0,0,1
stats,54,1,0.55,511.537,0.25,-0.25,0.0735,-0.00054318,0.00501901,9.10847e-09,-0.00215732,-0.000262125,0.0100186,8.60953e-08,1.62628e-07,-0.00381271,0.00249041,127.508,-4.39488,570.397,-0.00108403,-0.00188041,10.5751,878,511.537,0.25,-0.25,0.0735,-0.00054318,0.00501901,9.10847e-09,-0.00215732,-0.000262125,0.0100186,8.60953e-08,1.62628e-07,-0.00381271,0.00249041,127.508,-4.39488,570.397,-0.00108403,-0.00188041,10.5751,878,511.537,0.25,-0.25,0.0735,-0.00054318,0.00501901,9.10847e-09,-0.00215732,-0.000262125,0.0100186,8.60953e-08,1.62628e-07,-0.00381271,0.00249041,127.508,-4.39488,570.397,-0.00108403,-0.00188041,10.5751,878,511.537,0.25,-0.25,0.0735,-0.00054318,0.00501901,9.10847e-09,-0.00215732,-0.000262125,0.0100186,8.60953e-08,1.62628e-07,-0.00381271,0.00249041,127.508,-4.39488,570.397,-0.00108403,-0.00188041,10.5751,878,511.537,0.25,-0.25,0.0735,-0.00054318,0.00501901,9.10847e-09,-0.00215732,-0.000262125,0.0100186,8.60953e-08,1.62628e-07,-0.00381271,0.00249041,127.508,-4.39488,570.397,-0.00108403,-0.00188041,10.5751,878,511.537,0.25,-0.25,0.0735,-0.00054318,0.00501901,9.10847e-09,-0.00215732,-0.000262125,0.0100186,8.60953e-08,1.62628e-07,-0.00381271,0.00249041,127.508,-4.39488,570.397,-0.00108403,-0.00188041,10.5751,878,0,0,0,0,0,0,0,0,0,0,0,0,0,0,0,0,0,0,0,0,0,1
stats,55,1,0.56,515.564,0.25,-0.25,0.0735,-0.000562905,0.00511327,1.01875e-08,-0.00227507,-0.000268595,0.0103003,9.52288e-08,1.80948e-07,-0.00394259,0.00271901,128.92,-4.29351,574.962,-0.00112152,-0.0019035,10.5677,878,515.564,0.25,-0.25,0.0735,-0.000562905,0.00511327,1.01875e-08,-0.00227507,-0.000268595,0.0103003,9.52288e-08,1.80948e-07,-0.00394259,0.00271901,128.92,-4.29351,574.962,-0.00112152,-0.0019035,10.5677,878,515.564,0.25,-0.25,0.0735,-0.000562905,0.00511327,1.01875e-08,-0.00227507,-0.000268595,0.0103003,9.52288e-08,1.80948e-07,-0.00394259,0.00271901,128.92,-4.29351,574.962,-0.00112152,-0.0019035,10.5677,878,515.564,0.25,-0.25,0.0735,-0.000562905,0.00511327,1.01875e-08,-0.00227507,-0.000268595,0.0103003,9.52288e-08,1.80948e-07,-0.00394259,0.00271901,128.92,-4.29351,574.962,-0.00112152,-0.0019035,10.5677,878,515.564,0.25,-0.25,0.0735,-0.000562905,0.00511327,1.01875e-08,-0.00227507,-0.000268595,0.0103003,9.52288e-08,1.80948e-07,-0.00394259,0.00271901,128.92,-4.29351,574.962,-0.00112152,-0.0019035,10.5677,878,515.564,0.25,-0.25,0.0735,-0.000562905,0.00511327,1.01875e-08,-0.00227507,-0.000268595,0.0103003,9.52288e-08,1.80948e-07,-0.00394259,0.00271901,128.92,-4.29351,574.962,-0.00112152,-0.0019035,10.5677,878,0,0,0,0,0,0,0,0,0,0,0,0,0,0,0,0,0,0,0,0,0,1
stats,56,1,0.57,519.399,0.25,-0.25,0.0735,-0.000583373,0.00520735,1.14272e-08,-0.00239886,-0.000276503,0.0105896,1.04839e-07,2.00406e-07,-0.00407701,0.00295878,130.139,-4.22328,579.234,-0.00115711,-0.00191991,10.5114,878,519.399,0.25,-0.25,0.0735,-0.000583373,0.00520735,1.14272e-08,-0.00239886,-0.000276503,0.0105896,1.04839e-07,2.00406e-07,-0.00407701,0.00295878,130.139,-4.22328,579.234,-0.00115711,-0.00191991,10.5114,878,519.399,0.25,-0.25,0.0735,-0.000583373,0.00520735,1.14272e-08,-0.00239886,-0.000276503,0.0105896,1.04839e-07,2.00406e-07,-0.00407701,0.00295878,130.139,-4.22328,579.234,-0.00115711,-0.00191991,10.5114,878,519.399,0.25,-0.25,0.0735,-0.000583373,0.00520735,1.14272e-08,-0.00239886,-0.000276503,0.0105896,1.04839e-07,2.00406e-07,-0.00407701,0.00295878,130.139,-4.22328,579.234,-0.00115711,-0.00191991,10.5114,878,519.399,0.25,-0.25,0.0735,-0.000583373,0.00520735,1.14272e-08,-0.00239886,-0.000276503,0.0105896,1.04839e-07,2.00406e-07,-0.00407701,0.00295878,130.139,-4.22328,579.234,-0.00115711,-0.00191991,10.5114,878,519.399,0.25,-0.25,0.0735,-0.000583373,0.00520735,1.14272e-08,-0.00239886,-0.000276503,0.0105896,1.04839e-07,2.00406e-07,-0.00407701,0.00295878,130.139,-4.22328,579.234,-0.00115711,-0.00191991,10.5114,878,0,0,0,0,0,0,0,0,0,0,0,0,0,0,0,0,0,0,0,0,0,1
stats,57,1,0.58,523.037,0.25,-0.25,0.0735,-0.000604906,0.00530162,1.26894e-08,-0.00252807,-0.000284684,0.0108858,1.14825e-07,2.20725e-07,-0.00421575,0.00320909,131.198,-4.13111,583.22,-0.00119246,-0.00193603,10.4042,878,523.037,0.25,-0.25,0.0735,-0.000604906,0.00530162,1.26894e-08,-0.00252807,-0.000284684,0.0108858,1.14825e-07,2.20725e-07,-0.00421575,0.00320909,131.198,-4.13111,583.22,-0.00119246,-0.00193603,10.4042,878,523.037,0.25,-0.25,0.0735,-0.000604906,0.00530162,1.26894e-08,-0.00252807,-0.000284684,0.0108858,1.14825e-07,2.20725e-07,-0.00421575,0.00320909,131.198,-4.13111,583.22,-0.00119246,-0.00193603,10.4042,878,523.037,0.25,-0.25,0.0735,-0.000604906,0.00530162,1.26894e-08,-0.00252807,-0.000284684,0.0108858,1.14825e-07,2.20725e-07,-0.00421575,0.00320909,131.198,-4.13111,583.22,-0.00119246,-0.00193603,10.4042,878,523.037,0.25,-0.25,0.0735,-0.000604906,0.00530162,1.26894e-08,-0.00252807,-0.000284684,0.0108858,1.14825e-07,2.20725e-07,-0.00421575,0.00320909,131.198,-4.13111,583.22,-0.00119246,-0.00193603,10.4042,878,523.037,0.25,-0.25,0.0735,-0.000604906,0.00530162,1.26894e-08,-0.00252807,-0.000284684,0.0108858,1.14825e-07,2.20725e-07,-0.00421575,0.00320909,131.198,-4.13111,583.22,-0.00119246,-0.00193603,10.4042,878,0,0,0,0,0,0,0,0,0,0,0,0,0,0,0,0,0,0,0,0,0,1
stats,58,1,0.59,526.562,0.25,-0.25,0.0735,-0.000627124,0.00539603,1.39624e-08,-0.00266235,-0.000294028,0.0111887,1.2546e-07,2.42116e-07,-0.00435873,0.00346864,132.079,-4.0639,586.99,-0.00121644,-0.0019385,10.2355,878,526.562,0.25,-0.25,0.0735,-0.000627124,0.00539603,1.39624e-08,-0.00266235,-0.000294028,0.0111887,1.2546e-07,2.42116e-07,-0.00435873,0.00346864,132.079,-4.0639,586.99,-0.00121644,-0.0019385,10.2355,878,526.562,0.25,-0.25,0.0735,-0.000627124,0.00539603,1.39624e-08,-0.00266235,-0.000294028,0.0111887,1.2546e-07,2.42116e-07,-0.00435873,0.00346864,132.079,-4.0639,586.99,-0.00121644,-0.0019385,10.2355,878,526.562,0.25,-0.25,0.0735,-0.000627124,0.00539603,1.39624e-08,-0.00266235,-0.000294028,0.0111887,1.2546e-07,2.42116e-07,-0.00435873,0.00346864,132.079,-4.0639,586.99,-0.00121644,-0.0019385,10.2355,878,526.562,0.25,-0.25,0.0735,-0.000627124,0.00539603,1.39624e-08,-0.00266235,-0.000294028,0.0111887,1.2546e-07,2.42116e-07,-0.00435873,0.00346864,132.079,-4.0639,586.99,-0.00121644,-0.0019385,10.2355,878,526.562,0.25,-0.25,0.0735,-0.000627124,0.00539603,1.39624e-08,-0.00266235,-0.000294028,0.0111887,1.2546e-07,2.42116e-07,-0.00435873,0.00346864,132.079,-4.0639,586.99,-0.00121644,-0.0019385,10.2355,878,0,0,0,0,0,0,0,0,0,0,0,0,0,0,0,0,0,0,0,0,0,1
stats,59,1,0.6,529.723,0.25,-0.25,0.0735,-0.000650401,0.00549035,1.52582e-08,-0.00280498,-0.000304071,0.0115022,1.36572e-07,2.64975e-07,-0.00450814,0.00374518,132.765,-3.9897,590.29,-0.00124555,-0.00194172,10.0144,878,529.723,0.25,-0.25,0.0735,-0.000650401,0.00549035,1.52582e-08,-0.00280498,-0.000304071,0.0115022,1.36572e-07,2.64975e-07,-0.00450814,0.00374518,132.765,-3.9897,590.29,-0.00124555,-0.00194172,10.0144,878,529.723,0.25,-0.25,0.0735,-0.000650401,0.00549035,1.52582e-08,-0.00280498,-0.000304071,0.0115022,1.36572e-07,2.64975e-07,-0.00450814,0.00374518,132.765,-3.9897,590.29,-0.00124555,-0.00194172,10.0144,878,529.723,0.25,-0.25,0.0735,-0.000650401,0.00549035,1.52582e-08,-0.00280498,-0.000304071,0.0115022,1.36572e-07,2.64975e-07,-0.00450814,0.00374518,132.765,-3.9897,590.29,-0.00124555,-0.00194172,10.0144,878,529.723,0.25,-0.25,0.0735,-0.000650401,0.00549035,1.52582e-08,-0.00280498,-0.000304071,0.0115022,1.36572e-07,2.64975e-07,-0.00450814,0.00374518,132.765,-3.9897,590.29,-0.00124555,-0.00194172,10.0144,878,529.723,0.25,-0.25,0.0735,-0.000650401,0.00549035,1.52582e-08,-0.00280498,-0.000304071,0.0115022,1.36572e-07,2.64975e-07,-0.00450814,0.00374518,132.765,-3.9897,590.29,-0.00124555,-0.00194172,10.0144,878,0,0,0,0,0,0,0,0,0,0,0,0,0,0,0,0,0,0,0,0,0,1
stats,60,1,0.61,532.827,0.25,-0.25,0.0735,-0.000674535,0.0055847,1.66892e-08,-0.00295342,-0.000316095,0.0118237,1.48438e-07,2.88828e-07,-0.00466238,0.00403146,133.247,-3.95467,593.403,-0.00126217,-0.00193314,9.70228,878,532.827,0.25,-0.25,0.0735,-0.000674535,0.0055847,1.66892e-08,-0.00295342,-0.000316095,0.0118237,1.48438e-07,2.88828e-07,-0.00466238,0.00403146,133.247,-3.95467,593.403,-0.00126217,-0.00193314,9.70228,878,532.827,0.25,-0.25,0.0735,-0.000674535,0.0055847,1.66892e-08,-0.00295342,-0.000316095,0.0118237,1.48438e-07,2.88828e-07,-0.00466238,0.00403146,133.247,-3.95467,593.403,-0.00126217,-0.00193314,9.70228,878,532.827,0.25,-0.25,0.0735,-0.000674535,0.0055847,1.66892e-08,-0.00295342,-0.000316095,0.0118237,1.48438e-07,2.88828e-07,-0.00466238,0.00403146,133.247,-3.95467,593.403,-0.00126217,-0.00193314,9.70228,878,532.827,0.25,-0.25,0.0735,-0.000674535,0.0055847,1.66892e-08,-0.00295342,-0.000316095,0.0118237,1.48438e-07,2.88828e-07,-0.00466238,0.00403146,133.247,-3.95467,593.403,-0.00126217,-0.00193314,9.70228,878,532.827,0.25,-0.25,0.0735,-0.000674535,0.0055847,1.66892e-08,-0.00295342,-0.000316095,0.0118237,1.48438e-07,2.88828e-07,-0.00466238,0.00403146,133.247,-3.95467,593.403,-0.00126217,-0.00193314,9.70228,878,0,0,0,0,0,0,0,0,0,0,0,0,0,0,0,0,0,0,0,0,0,1
stats,61,1,0.62,535.7,0.25,-0.25,0.0735,-0.000699792,0.00567876,1.81353e-08,-0.00310945,-0.000328338,0.0121573,1.60811e-07,3.13839e-07,-0.00482373,0.00433412,133.622,-3.91757,596.215,-0.00128175,-0.00193036,9.34258,878,535.7,0.25,-0.25,0.0735,-0.000699792,0.00567876,1.81353e-08,-0.00310945,-0.000328338,0.0121573,1.60811e-07,3.13839e-07,-0.00482373,0.00433412,133.622,-3.91757,596.215,-0.00128175,-0.00193036,9.34258,878,535.7,0.25,-0.25,0.0735,-0.000699792,0.00567876,1.81353e-08,-0.00310945,-0.000328338,0.0121573,1.60811e-07,3.13839e-07,-0.00482373,0.00433412,133.622,-3.91757,596.215,-0.00128175,-0.00193036,9.34258,878,535.7,0.25,-0.25,0.0735,-0.000699792,0.00567876,1.81353e-08,-0.00310945,-0.000328338,0.0121573,1.60811e-07,3.13839e-07,-0.00482373,0.00433412,133.622,-3.91757,596.215,-0.00128175,-0.00193036,9.34258,878,535.7,0.25,-0.25,0.0735,-0.000699792,0.00567876,1.81353e-08,-0.00310945,-0.000328338,0.0121573,1.60811e-07,3.13839e-07,-0.00482373,0.00433412,133.622,-3.91757,596.215,-0.00128175,-0.00193036,9.34258,878,535.7,0.25,-0.25,0.0735,-0.000699792,0.00567876,1.81353e-08,-0.00310945,-0.000328338,0.0121573,1.60811e-07,3.13839e-07,-0.00482373,0.00433412,133.622,-3.91757,596.215,-0.00128175,-0.00193036,9.34258,878,0,0,0,0,0,0,0,0,0,0,0,0,0,0,0,0,0,0,0,0,0,1
stats,62,1,0.63,538.53,0.25,-0.25,0.0735,-0.000725824,0.00577218,1.98205e-08,-0.00327303,-0.000339149,0.0125029,1.73698e-07,3.39813e-07,-0.00499111,0.00465022,133.861,-3.88525,598.927,-0.0012972,-0.00192307,8.9666,878,538.53,0.25,-0.25,0.0735,-0.000725824,0.00577218,1.98205e-08,-0.00327303,-0.000339149,0.0125029,1.73698e-07,3.39813e-07,-0.00499111,0.00465022,133.861,-3.88525,598.927,-0.0012972,-0.00192307,8.9666,878,538.53,0.25,-0.25,0.0735,-0.000725824,0.00577218,1.98205e-08,-0.00327303,-0.000339149,0.0125029,1.73698e-07,3.39813e-07,-0.00499111,0.00465022,133.861,-3.88525,598.927,-0.0012972,-0.00192307,8.9666,878,538.53,0.25,-0.25,0.0735,-0.000725824,0.00577218,1.98205e-08,-0.00327303,-0.000339149,0.0125029,1.73698e-07,3.39813e-07,-0.00499111,0.00465022,133.861,-3.88525,598.927,-0.0012972,-0.00192307,8.9666,878,538.53,0.25,-0.25,0.0735,-0.000725824,0.00577218,1.98205e-08,-0.00327303,-0.000339149,0.0125029,1.73698e-07,3.39813e-07,-0.00499111,0.00465022,133.861,-3.88525,598.927,-0.0012972,-0.00192307,8.9666,878,538.53,0.25,-0.25,0.0735,-0.000725824,0.00577218,1.98205e-08,-0.00327303,-0.000339149,0.0125029,1.73698e-07,3.39813e-07,-0.00499111,0.00465022,133.861,-3.88525,598.927,-0.0012972,-0.00192307,8.9666,878,0,0,0,0,0,0,0,0,0,0,0,0,0,0,0,0,0,0,0,0,0,1
stats,63,1,0.64,541.28,0.25,-0.25,0.0735,-0.000752908,0.00586526,2.13566e-08,-0.00344072,-0.000344857,0.0128545,1.86742e-07,3.65856e-07,-0.00515974,0.00497295,134.077,-3.74697,601.636,-0.00131267,-0.00192572,8.71456,878,541.28,0.25,-0.25,0.0735,-0.000752908,0.00586526,2.13566e-08,-0.00344072,-0.000344857,0.0128545,1.86742e-07,3.65856e-07,-0.00515974,0.00497295,134.077,-3.74697,601.636,-0.00131267,-0.00192572,8.71456,878,541.28,0.25,-0.25,0.0735,-0.000752908,0.00586526,2.13566e-08,-0.00344072,-0.000344857,0.0128545,1.86742e-07,3.65856e-07,-0.00515974,0.00497295,134.077,-3.74697,601.636,-0.00131267,-0.00192572,8.71456,878,541.28,0.25,-0.25,0.0735,-0.000752908,0.00586526,2.13566e-08,-0.00344072,-0.000344857,0.0128545,1.86742e-07,3.65856e-07,-0.00515974,0.00497295,134.077,-3.74697,601.636,-0.00131267,-0.00192572,8.71456,878,541.28,0.25,-0.25,0.0735,-0.000752908,0.00586526,2.13566e-08,-0.00344072,-0.000344857,0.0128545,1.86742e-07,3.65856e-07,-0.00515974,0.00497295,134.077,-3.74697,601.636,-0.00131267,-0.00192572,8.71456,878,541.28,0.25,-0.25,0.0735,-0.000752908,0.00586526,2.13566e-08,-0.00344072,-0.000344857,0.0128545,1.86742e-07,3.65856e-07,-0.00515974,0.00497295,134.077,-3.74697,601.636,-0.00131267,-0.00192572,8.71456,878,0,0,0,0,0,0,0,0,0,0,0,0,0,0,0,0,0,0,0,0,0,1
stats,64,1,0.65,543.882,0.25,-0.25,0.0735,-0.000781144,0.00595848,2.3078e-08,-0.00361596,-0.000355658,0.0132203,2.00503e-07,3.93309e-07,-0.00533742,0.00531328,134.222,-3.67952,604.094,-0.0013244,-0.00192426,8.35089,878,543.882,0.25,-0.25,0.0735,-0.000781144,0.00595848,2.3078e-08,-0.00361596,-0.000355658,0.0132203,2.00503e-07,3.93309e-07,-0.00533742,0.00531328,134.222,-3.67952,604.094,-0.0013244,-0.00192426,8.35089,878,543.882,0.25,-0.25,0.0735,-0.000781144,0.00595848,2.3078e-08,-0.00361596,-0.000355658,0.0132203,2.00503e-07,3.93309e-07,-0.00533742,0.00531328,134.222,-3.67952,604.094,-0.0013244,-0.00192426,8.35089,878,543.882,0.25,-0.25,0.0735,-0.000781144,0.00595848,2.3078e-08,-0.00361596,-0.000355658,0.0132203,2.00503e-07,3.93309e-07,-0.00533742,0.00531328,134.222,-3.67952,604.094,-0.0013244,-0.00192426,8.35089,878,543.882,0.25,-0.25,0.0735,-0.000781144,0.00595848,2.3078e-08,-0.00361596,-0.000355658,0.0132203,2.00503e-07,3.93309e-07,-0.00533742,0.00531328,134.222,-3.67952,604.094,-0.0013244,-0.00192426,8.35089,878,543.882,0.25,-0.25,0.0735,-0.000781144,0.00595848,2.3078e-08,-0.00361596,-0.000355658,0.0132203,2.00503e-07,3.93309e-07,-0.00533742,0.00531328,134.222,-3.67952,604.094,-0.0013244,-0.00192426,8.35089,878,0,0,0,0,0,0,0,0,0,0,0,0,0,0,0,0,0,0,0,0,0,1
stats,65,1,0.66,547.009,0.25,-0.25,0.0735,-0.000810186,0.00605118,2.48745e-08,-0.00379651,-0.000364468,0.013593,2.14361e-07,4.21139e-07,-0.00551723,0.00565371,134.02,-3.67497,606.915,-0.00133024,-0.00190463,7.8992,878,547.009,0.25,-0.25,0.0735,-0.000810186,0.00605118,2.48745e-08,-0.00379651,-0.000364468,0.013593,2.14361e-07,4.21139e-07,-0.00551723,0.00565371,134.02,-3.67497,606.915,-0.00133024,-0.00190463,7.8992,878,547.009,0.25,-0.25,0.0735,-0.000810186,0.00605118,2.48745e-08,-0.00379651,-0.000364468,0.013593,2.14361e-07,4.21139e-07,-0.00551723,0.00565371,134.02,-3.67497,606.915,-0.00133024,-0.00190463,7.8992,878,547.009,0.25,-0.25,0.0735,-0.000810186,0.00605118,2.48745e-08,-0.00379651,-0.000364468,0.013593,2.14361e-07,4.21139e-07,-0.00551723,0.00565371,134.02,-3.67497,606.915,-0.00133024,-0.00190463,7.8992,878,547.009,0.25,-0.25,0.0735,-0.000810186,0.00605118,2.48745e-08,-0.00379651,-0.000364468,0.013593,2.14361e-07,4.21139e-07,-0.00551723,0.00565371,134.02,-3.67497,606.915,-0.00133024,-0.00190463,7.8992,878,547.009,0.25,-0.25,0.0735,-0.000810186,0.00605118,2.48745e-08,-0.00379651,-0.000364468,0.013593,2.14361e-07,4.21139e-07,-0.00551723,0.00565371,134.02,-3.67497,606.915,-0.00133024,-0.00190463,7.8992,878,0,0,0,0,0,0,0,0,0,0,0,0,0,0,0,0,0,0,0,0,0,1
stats,66,1,0.67,549.332,0.25,-0.25,0.0735,-0.000840407,0.00614384,2.67017e-08,-0.00398304,-0.000376431,0.013978,2.28991e-07,4.49857e-07,-0.00570534,0.00601841,134.091,-3.6277,609.047,-0.00133932,-0.00190042,7.50917,878,549.332,0.25,-0.25,0.0735,-0.000840407,0.00614384,2.67017e-08,-0.00398304,-0.000376431,0.013978,2.28991e-07,4.49857e-07,-0.00570534,0.00601841,134.091,-3.6277,609.047,-0.00133932,-0.00190042,7.50917,878,549.332,0.25,-0.25,0.0735,-0.000840407,0.00614384,2.67017e-08,-0.00398304,-0.000376431,0.013978,2.28991e-07,4.49857e-07,-0.00570534,0.00601841,134.091,-3.6277,609.047,-0.00133932,-0.00190042,7.50917,878,549.332,0.25,-0.25,0.0735,-0.000840407,0.00614384,2.67017e-08,-0.00398304,-0.000376431,0.013978,2.28991e-07,4.49857e-07,-0.00570534,0.00601841,134.091,-3.6277,609.047,-0.00133932,-0.00190042,7.50917,878,549.332,0.25,-0.25,0.0735,-0.000840407,0.00614384,2.67017e-08,-0.00398304,-0.000376431,0.013978,2.28991e-07,4.49857e-07,-0.00570534,0.00601841,134.091,-3.6277,609.047,-0.00133932,-0.00190042,7.50917,878,549.332,0.25,-0.25,0.0735,-0.000840407,0.00614384,2.67017e-08,-0.00398304,-0.000376431,0.013978,2.28991e-07,4.49857e-07,-0.00570534,0.00601841,134.091,-3.6277,609.047,-0.00133932,-0.00190042,7.50917,878,0,0,0,0,0,0,0,0,0,0,0,0,0,0,0,0,0,0,0,0,0,1
stats,67,1,0.68,552.094,0.25,-0.25,0.0735,-0.000871934,0.00623618,2.84787e-08,-0.00417646,-0.000386985,0.0143737,2.43823e-07,4.79453e-07,-0.00589788,0.0063883,133.863,-3.62871,611.461,-0.00134473,-0.00188331,7.02082,878,552.094,0.25,-0.25,0.0735,-0.000871934,0.00623618,2.84787e-08,-0.00417646,-0.000386985,0.0143737,2.43823e-07,4.79453e-07,-0.00589788,0.0063883,133.863,-3.62871,611.461,-0.00134473,-0.00188331,7.02082,878,552.094,0.25,-0.25,0.0735,-0.000871934,0.00623618,2.84787e-08,-0.00417646,-0.000386985,0.0143737,2.43823e-07,4.79453e-07,-0.00589788,0.0063883,133.863,-3.62871,611.461,-0.00134473,-0.00188331,7.02082,878,552.094,0.25,-0.25,0.0735,-0.000871934,0.00623618,2.84787e-08,-0.00417646,-0.000386985,0.0143737,2.43823e-07,4.79453e-07,-0.00589788,0.0063883,133.863,-3.62871,611.461,-0.00134473,-0.00188331,7.02082,878,552.094,0.25,-0.25,0.0735,-0.000871934,0.00623618,2.84787e-08,-0.00417646,-0.000386985,0.0143737,2.43823e-07,4.79453e-07,-0.00589788,0.0063883,133.863,-3.62871,611.461,-0.00134473,-0.00188331,7.02082,878,552.094,0.25,-0.25,0.0735,-0.000871934,0.00623618,2.84787e-08,-0.00417646,-0.000386985,0.0143737,2.43823e-07,4.79453e-07,-0.00589788,0.0063883,133.863,-3.62871,611.461,-0.00134473,-0.00188331,7.02082,878,0,0,0,0,0,0,0,0,0,0,0,0,0,0,0,0,0,0,0,0,0,1
stats,68,1,0.69,554.118,0.25,-0.25,0.0735,-0.000904622,0.00632828,3.05332e-08,-0.00437606,-0.000401441,0.0147827,2.59139e-07,5.09709e-07,-0.00609904,0.00678254,133.927,-3.62449,613.261,-0.00136042,-0.00189061,6.59848,878,554.118,0.25,-0.25,0.0735,-0.000904622,0.00632828,3.05332e-08,-0.00437606,-0.000401441,0.0147827,2.59139e-07,5.09709e-07,-0.00609904,0.00678254,133.927,-3.62449,613.261,-0.00136042,-0.00189061,6.59848,878,554.118,0.25,-0.25,0.0735,-0.000904622,0.00632828,3.05332e-08,-0.00437606,-0.000401441,0.0147827,2.59139e-07,5.09709e-07,-0.00609904,0.00678254,133.927,-3.62449,613.261,-0.00136042,-0.00189061,6.59848,878,554.118,0.25,-0.25,0.0735,-0.000904622,0.00632828,3.05332e-08,-0.00437606,-0.000401441,0.0147827,2.59139e-07,5.09709e-07,-0.00609904,0.00678254,133.927,-3.62449,613.261,-0.00136042,-0.00189061,6.59848,878,554.118,0.25,-0.25,0.0735,-0.000904622,0.00632828,3.05332e-08,-0.00437606,-0.000401441,0.0147827,2.59139e-07,5.09709e-07,-0.00609904,0.00678254,133.927,-3.62449,613.261,-0.00136042,-0.00189061,6.59848,878,554.118,0.25,-0.25,0.0735,-0.000904622,0.00632828,3.05332e-08,-0.00437606,-0.000401441,0.0147827,2.59139e-07,5.09709e-07,-0.00609904,0.00678254,133.927,-3.62449,613.261,-0.00136042,-0.00189061,6.59848,878,0,0,0,0,0,0,0,0,0,0,0,0,0,0,0,0,0,0,0,0,0,1
stats,69,1,0.7,556.685,0.25,-0.25,0.0735,-0.00093791,0.00642004,3.26089e-08,-0.00458153,-0.000412346,0.0151981,2.74481e-07,5.40572e-07,-0.00630217,0.00717622,133.554,-3.60926,615.38,-0.00136965,-0.00187906,6.03506,878,556.685,0.25,-0.25,0.0735,-0.00093791,0.00642004,3.26089e-08,-0.00458153,-0.000412346,0.0151981,2.74481e-07,5.40572e-07,-0.00630217,0.00717622,133.554,-3.60926,615.38,-0.00136965,-0.00187906,6.03506,878,556.685,0.25,-0.25,0.0735,-0.00093791,0.00642004,3.26089e-08,-0.00458153,-0.000412346,0.0151981,2.74481e-07,5.40572e-07,-0.00630217,0.00717622,133.554,-3.60926,615.38,-0.00136965,-0.00187906,6.03506,878,556.685,0.25,-0.25,0.0735,-0.00093791,0.00642004,3.26089e-08,-0.00458153,-0.000412346,0.0151981,2.74481e-07,5.40572e-07,-0.00630217,0.00717622,133.554,-3.60926,615.38,-0.00136965,-0.00187906,6.03506,878,556.685,0.25,-0.25,0.0735,-0.00093791,0.00642004,3.26089e-08,-0.00458153,-0.000412346,0.0151981,2.74481e-07,5.40572e-07,-0.00630217,0.00717622,133.554,-3.60926,615.38,-0.00136965,-0.00187906,6.03506,878,556.685,0.25,-0.25,0.0735,-0.00093791,0.00642004,3.26089e-08,-0.00458153,-0.000412346,0.0151981,2.74481e-07,5.40572e-07,-0.00630217,0.00717622,133.554,-3.60926,615.38,-0.00136965,-0.00187906,6.03506,878,0,0,0,0,0,0,0,0,0,0,0,0,0,0,0,0,0,0,0,0,0,1
stats,70,1,0.71,558.982,0.25,-0.25,0.0735,-0.000972576,0.00651175,3.48023e-08,-0.00479227,-0.000425058,0.0156248,2.90254e-07,5.71995e-07,-0.0065117,0.00758542,133.319,-3.60566,617.278,-0.00137636,-0.00186761,5.4872,878,558.982,0.25,-0.25,0.0735,-0.000972576,0.00651175,3.48023e-08,-0.00479227,-0.000425058,0.0156248,2.90254e-07,5.71995e-07,-0.0065117,0.00758542,133.319,-3.60566,617.278,-0.00137636,-0.00186761,5.4872,878,558.982,0.25,-0.25,0.0735,-0.000972576,0.00651175,3.48023e-08,-0.00479227,-0.000425058,0.0156248,2.90254e-07,5.71995e-07,-0.0065117,0.00758542,133.319,-3.60566,617.278,-0.00137636,-0.00186761,5.4872,878,558.982,0.25,-0.25,0.0735,-0.000972576,0.00651175,3.48023e-08,-0.00479227,-0.000425058,0.0156248,2.90254e-07,5.71995e-07,-0.0065117,0.00758542,133.319,-3.60566,617.278,-0.00137636,-0.00186761,5.4872,878,558.982,0.25,-0.25,0.0735,-0.000972576,0.00651175,3.48023e-08,-0.00479227,-0.000425058,0.0156248,2.90254e-07,5.71995e-07,-0.0065117,0.00758542,133.319,-3.60566,617.278,-0.00137636,-0.00186761,5.4872,878,558.982,0.25,-0.25,0.0735,-0.000972576,0.00651175,3.48023e-08,-0.00479227,-0.000425058,0.0156248,2.90254e-07,5.71995e-07,-0.0065117,0.00758542,133.319,-3.60566,617.278,-0.00137636,-0.00186761,5.4872,878,0,0,0,0,0,0,0,0,0,0,0,0,0,0,0,0,0,0,0,0,0,1
stats,71,1,0.72,561.32,0.25,-0.25,0.0735,-0.00100768,0.00660214,3.69406e-08,-0.00501187,-0.000436877,0.0160631,3.06297e-07,6.04302e-07,-0.00672647,0.00800656,132.807,-3.62338,619.085,-0.00138632,-0.00185496,4.87881,878,561.32,0.25,-0.25,0.0735,-0.00100768,0.00660214,3.69406e-08,-0.00501187,-0.000436877,0.0160631,3.06297e-07,6.04302e-07,-0.00672647,0.00800656,132.807,-3.62338,619.085,-0.00138632,-0.00185496,4.87881,878,561.32,0.25,-0.25,0.0735,-0.00100768,0.00660214,3.69406e-08,-0.00501187,-0.000436877,0.0160631,3.06297e-07,6.04302e-07,-0.00672647,0.00800656,132.807,-3.62338,619.085,-0.00138632,-0.00185496,4.87881,878,561.32,0.25,-0.25,0.0735,-0.00100768,0.00660214,3.69406e-08,-0.00501187,-0.000436877,0.0160631,3.06297e-07,6.04302e-07,-0.00672647,0.00800656,132.807,-3.62338,619.085,-0.00138632,-0.00185496,4.87881,878,561.32,0.25,-0.25,0.0735,-0.00100768,0.00660214,3.69406e-08,-0.00501187,-0.000436877,0.0160631,3.06297e-07,6.04302e-07,-0.00672647,0.00800656,132.807,-3.62338,619.085,-0.00138632,-0.00185496,4.87881,878,561.32,0.25,-0.25,0.0735,-0.00100768,0.00660214,3.69406e-08,-0.00501187,-0.000436877,0.0160631,3.06297e-07,6.04302e-07,-0.00672647,0.00800656,132.807,-3.62338,619.085,-0.00138632,-0.00185496,4.87881,878,0,0,0,0,0,0,0,0,0,0,0,0,0,0,0,0,0,0,0,0,0,1
stats,72,1,0.73,563.486,0.25,-0.25,0.0735,-0.00104441,0.00669364,3.92316e-08,-0.0052336,-0.000451171,0.016511,3.22749e-07,6.37131e-07,-0.00694774,0.00844012,132.59,-3.64281,620.795,-0.00139528,-0.00184899,4.24221,878,563.486,0.25,-0.25,0.0735,-0.00104441,0.00669364,3.92316e-08,-0.0052336,-0.000451171,0.016511,3.22749e-07,6.37131e-07,-0.00694774,0.00844012,132.59,-3.64281,620.795,-0.00139528,-0.00184899,4.24221,878,563.486,0.25,-0.25,0.0735,-0.00104441,0.00669364,3.92316e-08,-0.0052336,-0.000451171,0.016511,3.22749e-07,6.37131e-07,-0.00694774,0.00844012,132.59,-3.64281,620.795,-0.00139528,-0.00184899,4.24221,878,563.486,0.25,-0.25,0.0735,-0.00104441,0.00669364,3.92316e-08,-0.0052336,-0.000451171,0.016511,3.22749e-07,6.37131e-07,-0.00694774,0.00844012,132.59,-3.64281,620.795,-0.00139528,-0.00184899,4.24221,878,563.486,0.25,-0.25,0.0735,-0.00104441,0.00669364,3.92316e-08,-0.0052336,-0.000451171,0.016511,3.22749e-07,6.37131e-07,-0.00694774,0.00844012,132.59,-3.64281,620.795,-0.00139528,-0.00184899,4.24221,878,563.486,0.25,-0.25,0.0735,-0.00104441,0.00669364,3.92316e-08,-0.0052336,-0.000451171,0.016511,3.22749e-07,6.37131e-07,-0.00694774,0.00844012,132.59,-3.64281,620.795,-0.00139528,-0.00184899,4.24221,878,0,0,0,0,0,0,0,0,0,0,0,0,0,0,0,0,0,0,0,0,0,1
stats,73,1,0.74,565.869,0.25,-0.25,0.0735,-0.00108192,0.00678332,4.15491e-08,-0.00546781,-0.000460955,0.0169718,3.39402e-07,6.70823e-07,-0.00717264,0.0088842,131.819,-3.6209,622.527,-0.00140521,-0.0018342,3.5789,878,565.869,0.25,-0.25,0.0735,-0.00108192,0.00678332,4.15491e-08,-0.00546781,-0.000460955,0.0169718,3.39402e-07,6.70823e-07,-0.00717264,0.0088842,131.819,-3.6209,622.527,-0.00140521,-0.0018342,3.5789,878,565.869,0.25,-0.25,0.0735,-0.00108192,0.00678332,4.15491e-08,-0.00546781,-0.000460955,0.0169718,3.39402e-07,6.70823e-07,-0.00717264,0.0088842,131.819,-3.6209,622.527,-0.00140521,-0.0018342,3.5789,878,565.869,0.25,-0.25,0.0735,-0.00108192,0.00678332,4.15491e-08,-0.00546781,-0.000460955,0.0169718,3.39402e-07,6.70823e-07,-0.00717264,0.0088842,131.819,-3.6209,622.527,-0.00140521,-0.0018342,3.5789,878,565.869,0.25,-0.25,0.0735,-0.00108192,0.00678332,4.15491e-08,-0.00546781,-0.000460955,0.0169718,3.39402e-07,6.70823e-07,-0.00717264,0.0088842,131.819,-3.6209,622.527,-0.00140521,-0.0018342,3.5789,878,565.869,0.25,-0.25,0.0735,-0.00108192,0.00678332,4.15491e-08,-0.00546781,-0.000460955,0.0169718,3.39402e-07,6.70823e-07,-0.00717264,0.0088842,131.819,-3.6209,622.527,-0.00140521,-0.0018342,3.5789,878,0,0,0,0,0,0,0,0,0,0,0,0,0,0,0,0,0,0,0,0,0,1
stats,74,1,0.75,567.699,0.25,-0.25,0.0735,-0.00112044,0.00687405,4.40052e-08,-0.0057011,-0.000478295,0.0174402,3.56521e-07,7.04813e-07,-0.00740462,0.00934392,131.657,-3.69742,623.893,-0.00141821,-0.00184953,2.91661,878,567.699,0.25,-0.25,0.0735,-0.00112044,0.00687405,4.40052e-08,-0.0057011,-0.000478295,0.0174402,3.56521e-07,7.04813e-07,-0.00740462,0.00934392,131.657,-3.69742,623.893,-0.00141821,-0.00184953,2.91661,878,567.699,0.25,-0.25,0.0735,-0.00112044,0.00687405,4.40052e-08,-0.0057011,-0.000478295,0.0174402,3.56521e-07,7.04813e-07,-0.00740462,0.00934392,131.657,-3.69742,623.893,-0.00141821,-0.00184953,2.91661,878,567.699,0.25,-0.25,0.0735,-0.00112044,0.00687405,4.40052e-08,-0.0057011,-0.000478295,0.0174402,3.56521e-07,7.04813e-07,-0.00740462,0.00934392,131.657,-3.69742,623.893,-0.00141821,-0.00184953,2.91661,878,567.699,0.25,-0.25,0.0735,-0.00112044,0.00687405,4.40052e-08,-0.0057011,-0.000478295,0.0174402,3.56521e-07,7.04813e-07,-0.00740462,0.00934392,131.657,-3.69742,623.893,-0.00141821,-0.00184953,2.91661,878,567.699,0.25,-0.25,0.0735,-0.00112044,0.00687405,4.40052e-08,-0.0057011,-0.000478295,0.0174402,3.56521e-07,7.04813e-07,-0.00740462,0.00934392,131.657,-3.69742,623.893,-0.00141821,-0.00184953,2.91661,878,0,0,0,0,0,0,0,0,0,0,0,0,0,0,0,0,0,0,0,0,0,1
stats,75,1,0.76,570.664,0.25,-0.25,0.0735,-0.0011608,0.00696321,4.644e-08,-0.00595127,-0.00048601,0.017926,3.72626e-07,7.39573e-07,-0.00764044,0.00980623,130.438,-3.64656,625.941,-0.00145995,-0.00173176,2.05675,878,570.664,0.25,-0.25,0.0735,-0.0011608,0.00696321,4.644e-08,-0.00595127,-0.00048601,0.017926,3.72626e-07,7.39573e-07,-0.00764044,0.00980623,130.438,-3.64656,625.941,-0.00145995,-0.00173176,2.05675,878,570.664,0.25,-0.25,0.0735,-0.0011608,0.00696321,4.644e-08,-0.00595127,-0.00048601,0.017926,3.72626e-07,7.39573e-07,-0.00764044,0.00980623,130.438,-3.64656,625.941,-0.00145995,-0.00173176,2.05675,878,570.664,0.25,-0.25,0.0735,-0.0011608,0.00696321,4.644e-08,-0.00595127,-0.00048601,0.017926,3.72626e-07,7.39573e-07,-0.00764044,0.00980623,130.438,-3.64656,625.941,-0.00145995,-0.00173176,2.05675,878,570.664,0.25,-0.25,0.0735,-0.0011608,0.00696321,4.644e-08,-0.00595127,-0.00048601,0.017926,3.72626e-07,7.39573e-07,-0.00764044,0.00980623,130.438,-3.64656,625.941,-0.00145995,-0.00173176,2.05675,878,570.664,0.25,-0.25,0.0735,-0.0011608,0.00696321,4.644e-08,-0.00595127,-0.00048601,0.017926,3.72626e-07,7.39573e-07,-0.00764044,0.00980623,130.438,-3.64656,625.941,-0.00145995,-0.00173176,2.05675,878,0,0,0,0,0,0,0,0,0,0,0,0,0,0,0,0,0,0,0,0,0,1
stats,76,1,0.77,571.841,0.25,-0.25,0.0735,-0.00119966,0.0070527,4.8851e-08,-0.00619089,-0.000507554,0.0184063,3.89954e-07,7.74041e-07,-0.00787895,0.0102873,130.569,-3.79742,626.779,-0.00147591,-0.00179371,1.45951,878,571.841,0.25,-0.25,0.0735,-0.00119966,0.0070527,4.8851e-08,-0.00619089,-0.000507554,0.0184063,3.89954e-07,7.74041e-07,-0.00787895,0.0102873,130.569,-3.79742,626.779,-0.00147591,-0.00179371,1.45951,878,571.841,0.25,-0.25,0.0735,-0.00119966,0.0070527,4.8851e-08,-0.00619089,-0.000507554,0.0184063,3.89954e-07,7.74041e-07,-0.00787895,0.0102873,130.569,-3.79742,626.779,-0.00147591,-0.00179371,1.45951,878,571.841,0.25,-0.25,0.0735,-0.00119966,0.0070527,4.8851e-08,-0.00619089,-0.000507554,0.0184063,3.89954e-07,7.74041e-07,-0.00787895,0.0102873,130.569,-3.79742,626.779,-0.00147591,-0.00179371,1.45951,878,571.841,0.25,-0.25,0.0735,-0.00119966,0.0070527,4.8851e-08,-0.00619089,-0.000507554,0.0184063,3.89954e-07,7.74041e-07,-0.00787895,0.0102873,130.569,-3.79742,626.779,-0.00147591,-0.00179371,1.45951,878,571.841,0.25,-0.25,0.0735,-0.00119966,0.0070527,4.8851e-08,-0.00619089,-0.000507554,0.0184063,3.89954e-07,7.74041e-07,-0.00787895,0.0102873,130.569,-3.79742,626.779,-0.00147591,-0.00179371,1.45951,878,0,0,0,0,0,0,0,0,0,0,0,0,0,0,0,0,0,0,0,0,0,1
stats,77,1,0.78,574.929,0.25,-0.25,0.0735,-0.00124225,0.00714042,5.16568e-08,-0.00645337,-0.000518717,0.0189127,4.07825e-07,8.11287e-07,-0.00812566,0.01077,129.144,-3.8153,628.756,-0.00146694,-0.00174808,0.412654,878,574.929,0.25,-0.25,0.0735,-0.00124225,0.00714042,5.16568e-08,-0.00645337,-0.000518717,0.0189127,4.07825e-07,8.11287e-07,-0.00812566,0.01077,129.144,-3.8153,628.756,-0.00146694,-0.00174808,0.412654,878,574.929,0.25,-0.25,0.0735,-0.00124225,0.00714042,5.16568e-08,-0.00645337,-0.000518717,0.0189127,4.07825e-07,8.11287e-07,-0.00812566,0.01077,129.144,-3.8153,628.756,-0.00146694,-0.00174808,0.412654,878,574.929,0.25,-0.25,0.0735,-0.00124225,0.00714042,5.16568e-08,-0.00645337,-0.000518717,0.0189127,4.07825e-07,8.11287e-07,-0.00812566,0.01077,129.144,-3.8153,628.756,-0.00146694,-0.00174808,0.412654,878,574.929,0.25,-0.25,0.0735,-0.00124225,0.00714042,5.16568e-08,-0.00645337,-0.000518717,0.0189127,4.07825e-07,8.11287e-07,-0.00812566,0.01077,129.144,-3.8153,628.756,-0.00146694,-0.00174808,0.412654,878,574.929,0.25,-0.25,0.0735,-0.00124225,0.00714042,5.16568e-08,-0.00645337,-0.000518717,0.0189127,4.07825e-07,8.11287e-07,-0.00812566,0.01077,129.144,-3.8153,628.756,-0.00146694,-0.00174808,0.412654,878,0,0,0,0,0,0,0,0,0,0,0,0,0,0,0,0,0,0,0,0,0,1
stats,78,1,0.79,575.72,0.25,-0.25,0.0735,-0.00128241,0.0072296,5.41699e-08,-0.00670067,-0.000541642,0.0194082,4.25583e-07,8.46495e-07,-0.00837195,0.0112721,129.499,-3.97252,629.301,-0.00148896,-0.00180107,-0.146286,878,575.72,0.25,-0.25,0.0735,-0.00128241,0.0072296,5.41699e-08,-0.00670067,-0.000541642,0.0194082,4.25583e-07,8.46495e-07,-0.00837195,0.0112721,129.499,-3.97252,629.301,-0.00148896,-0.00180107,-0.146286,878,575.72,0.25,-0.25,0.0735,-0.00128241,0.0072296,5.41699e-08,-0.00670067,-0.000541642,0.0194082,4.25583e-07,8.46495e-07,-0.00837195,0.0112721,129.499,-3.97252,629.301,-0.00148896,-0.00180107,-0.146286,878,575.72,0.25,-0.25,0.0735,-0.00128241,0.0072296,5.41699e-08,-0.00670067,-0.000541642,0.0194082,4.25583e-07,8.46495e-07,-0.00837195,0.0112721,129.499,-3.97252,629.301,-0.00148896,-0.00180107,-0.146286,878,575.72,0.25,-0.25,0.0735,-0.00128241,0.0072296,5.41699e-08,-0.00670067,-0.000541642,0.0194082,4.25583e-07,8.46495e-07,-0.00837195,0.0112721,129.499,-3.97252,629.301,-0.00148896,-0.00180107,-0.146286,878,575.72,0.25,-0.25,0.0735,-0.00128241,0.0072296,5.41699e-08,-0.00670067,-0.000541642,0.0194082,4.25583e-07,8.46495e-07,-0.00837195,0.0112721,129.499,-3.97252,629.301,-0.00148896,-0.00180107,-0.146286,878,0,0,0,0,0,0,0,0,0,0,0,0,0,0,0,0,0,0,0,0,0,1
stats,79,1,0.8,579.007,0.25,-0.25,0.0735,-0.00132751,0.00731707,5.13539e-08,-0.00697689,-0.000551371,0.0199356,4.43808e-07,8.85895e-07,-0.0086283,0.0117743,127.747,-3.89254,631.301,-0.00148655,-0.00173806,-1.30361,878,579.007,0.25,-0.25,0.0735,-0.00132751,0.00731707,5.13539e-08,-0.00697689,-0.000551371,0.0199356,4.43808e-07,8.85895e-07,-0.0086283,0.0117743,127.747,-3.89254,631.301,-0.00148655,-0.00173806,-1.30361,878,579.007,0.25,-0.25,0.0735,-0.00132751,0.00731707,5.13539e-08,-0.00697689,-0.000551371,0.0199356,4.43808e-07,8.85895e-07,-0.0086283,0.0117743,127.747,-3.89254,631.301,-0.00148655,-0.00173806,-1.30361,878,579.007,0.25,-0.25,0.0735,-0.00132751,0.00731707,5.13539e-08,-0.00697689,-0.000551371,0.0199356,4.43808e-07,8.85895e-07,-0.0086283,0.0117743,127.747,-3.89254,631.301,-0.00148655,-0.00173806,-1.30361,878,579.007,0.25,-0.25,0.0735,-0.00132751,0.00731707,5.13539e-08,-0.00697689,-0.000551371,0.0199356,4.43808e-07,8.85895e-07,-0.0086283,0.0117743,127.747,-3.89254,631.301,-0.00148655,-0.00173806,-1.30361,878,579.007,0.25,-0.25,0.0735,-0.00132751,0.00731707,5.13539e-08,-0.00697689,-0.000551371,0.0199356,4.43808e-07,8.85895e-07,-0.0086283,0.0117743,127.747,-3.89254,631.301,-0.00148655,-0.00173806,-1.30361,878,0,0,0,0,0,0,0,0,0,0,0,0,0,0,0,0,0,0,0,0,0,1
stats,80,1,0.81,579.952,0.25,-0.25,0.0735,-0.00136721,0.00740452,6.03822e-08,-0.00722862,-0.000577943,0.0204394,4.61634e-07,9.20525e-07,-0.0088774,0.0122824,128.163,-4.15031,631.995,-0.00150828,-0.00181493,-1.89874,878,579.952,0.25,-0.25,0.0735,-0.00136721,0.00740452,6.03822e-08,-0.00722862,-0.000577943,0.0204394,4.61634e-07,9.20525e-07,-0.0088774,0.0122824,128.163,-4.15031,631.995,-0.00150828,-0.00181493,-1.89874,878,579.952,0.25,-0.25,0.0735,-0.00136721,0.00740452,6.03822e-08,-0.00722862,-0.000577943,0.0204394,4.61634e-07,9.20525e-07,-0.0088774,0.0122824,128.163,-4.15031,631.995,-0.00150828,-0.00181493,-1.89874,878,579.952,0.25,-0.25,0.0735,-0.00136721,0.00740452,6.03822e-08,-0.00722862,-0.000577943,0.0204394,4.61634e-07,9.20525e-07,-0.0088774,0.0122824,128.163,-4.15031,631.995,-0.00150828,-0.00181493,-1.89874,878,579.952,0.25,-0.25,0.0735,-0.00136721,0.00740452,6.03822e-08,-0.00722862,-0.000577943,0.0204394,4.61634e-07,9.20525e-07,-0.0088774,0.0122824,128.163,-4.15031,631.995,-0.00150828,-0.00181493,-1.89874,878,579.952,0.25,-0.25,0.0735,-0.00136721,0.00740452,6.03822e-08,-0.00722862,-0.000577943,0.0204394,4.61634e-07,9.20525e-07,-0.0088774,0.0122824,128.163,-4.15031,631.995,-0.00150828,-0.00181493,-1.89874,878,0,0,0,0,0,0,0,0,0,0,0,0,0,0,0,0,0,0,0,0,0,1
stats,81,1,0.82,582.148,0.25,-0.25,0.0735,-0.00141409,0.00749167,6.29022e-08,-0.00751297,-0.000593186,0.0209842,4.80719e-07,9.59739e-07,-0.00914468,0.0128179,126.914,-4.16092,633.104,-0.00151569,-0.00178914,-2.96974,878,582.148,0.25,-0.25,0.0735,-0.00141409,0.00749167,6.29022e-08,-0.00751297,-0.000593186,0.0209842,4.80719e-07,9.59739e-07,-0.00914468,0.0128179,126.914,-4.16092,633.104,-0.00151569,-0.00178914,-2.96974,878,582.148,0.25,-0.25,0.0735,-0.00141409,0.00749167,6.29022e-08,-0.00751297,-0.000593186,0.0209842,4.80719e-07,9.59739e-07,-0.00914468,0.0128179,126.914,-4.16092,633.104,-0.00151569,-0.00178914,-2.96974,878,582.148,0.25,-0.25,0.0735,-0.00141409,0.00749167,6.29022e-08,-0.00751297,-0.000593186,0.0209842,4.80719e-07,9.59739e-07,-0.00914468,0.0128179,126.914,-4.16092,633.104,-0.00151569,-0.00178914,-2.96974,878,582.148,0.25,-0.25,0.0735,-0.00141409,0.00749167,6.29022e-08,-0.00751297,-0.000593186,0.0209842,4.80719e-07,9.59739e-07,-0.00914468,0.0128179,126.914,-4.16092,633.104,-0.00151569,-0.00178914,-2.96974,878,582.148,0.25,-0.25,0.0735,-0.00141409,0.00749167,6.29022e-08,-0.00751297,-0.000593186,0.0209842,4.80719e-07,9.59739e-07,-0.00914468,0.0128179,126.914,-4.16092,633.104,-0.00151569,-0.00178914,-2.96974,878,0,0,0,0,0,0,0,0,0,0,0,0,0,0,0,0,0,0,0,0,0,1
stats,82,1,0.83,583.461,0.25,-0.25,0.0735,-0.0014563,0.00757805,6.58488e-08,-0.00778015,-0.000620288,0.0215096,4.98827e-07,9.968e-07,-0.00940438,0.0133444,126.74,-4.39494,633.835,-0.00153408,-0.00175357,-3.78197,878,583.461,0.25,-0.25,0.0735,-0.0014563,0.00757805,6.58488e-08,-0.00778015,-0.000620288,0.0215096,4.98827e-07,9.968e-07,-0.00940438,0.0133444,126.74,-4.39494,633.835,-0.00153408,-0.00175357,-3.78197,878,583.461,0.25,-0.25,0.0735,-0.0014563,0.00757805,6.58488e-08,-0.00778015,-0.000620288,0.0215096,4.98827e-07,9.968e-07,-0.00940438,0.0133444,126.74,-4.39494,633.835,-0.00153408,-0.00175357,-3.78197,878,583.461,0.25,-0.25,0.0735,-0.0014563,0.00757805,6.58488e-08,-0.00778015,-0.000620288,0.0215096,4.98827e-07,9.968e-07,-0.00940438,0.0133444,126.74,-4.39494,633.835,-0.00153408,-0.00175357,-3.78197,878,583.461,0.25,-0.25,0.0735,-0.0014563,0.00757805,6.58488e-08,-0.00778015,-0.000620288,0.0215096,4.98827e-07,9.968e-07,-0.00940438,0.0133444,126.74,-4.39494,633.835,-0.00153408,-0.00175357,-3.78197,878,583.461,0.25,-0.25,0.0735,-0.0014563,0.00757805,6.58488e-08,-0.00778015,-0.000620288,0.0215096,4.98827e-07,9.968e-07,-0.00940438,0.0133444,126.74,-4.39494,633.835,-0.00153408,-0.00175357,-3.78197,878,0,0,0,0,0,0,0,0,0,0,0,0,0,0,0,0,0,0,0,0,0,1
stats,83,1,0.84,585.78,0.25,-0.25,0.0735,-0.00150459,0.00766584,6.91617e-08,-0.00807142,-0.00063686,0.0220681,5.1834e-07,1.03691e-06,-0.00967774,0.0138922,125.535,-4.39429,635.065,-0.00150842,-0.00174142,-4.88037,878,585.78,0.25,-0.25,0.0735,-0.00150459,0.00766584,6.91617e-08,-0.00807142,-0.00063686,0.0220681,5.1834e-07,1.03691e-06,-0.00967774,0.0138922,125.535,-4.39429,635.065,-0.00150842,-0.00174142,-4.88037,878,585.78,0.25,-0.25,0.0735,-0.00150459,0.00766584,6.91617e-08,-0.00807142,-0.00063686,0.0220681,5.1834e-07,1.03691e-06,-0.00967774,0.0138922,125.535,-4.39429,635.065,-0.00150842,-0.00174142,-4.88037,878,585.78,0.25,-0.25,0.0735,-0.00150459,0.00766584,6.91617e-08,-0.00807142,-0.00063686,0.0220681,5.1834e-07,1.03691e-06,-0.00967774,0.0138922,125.535,-4.39429,635.065,-0.00150842,-0.00174142,-4.88037,878,585.78,0.25,-0.25,0.0735,-0.00150459,0.00766584,6.91617e-08,-0.00807142,-0.00063686,0.0220681,5.1834e-07,1.03691e-06,-0.00967774,0.0138922,125.535,-4.39429,635.065,-0.00150842,-0.00174142,-4.88037,878,585.78,0.25,-0.25,0.0735,-0.00150459,0.00766584,6.91617e-08,-0.00807142,-0.00063686,0.0220681,5.1834e-07,1.03691e-06,-0.00967774,0.0138922,125.535,-4.39429,635.065,-0.00150842,-0.00174142,-4.88037,878,0,0,0,0,0,0,0,0,0,0,0,0,0,0,0,0,0,0,0,0,0,1
stats,84,1,0.85,587.285,0.25,-0.25,0.0735,-0.00154628,0.00774806,7.21033e-08,-0.00834357,-0.000674864,0.0226039,5.36751e-07,1.07417e-06,-0.00994285,0.0144271,125.382,-4.8966,635.902,-0.00154768,-0.00176554,-5.82751,878,587.285,0.25,-0.25,0.0735,-0.00154628,0.00774806,7.21033e-08,-0.00834357,-0.000674864,0.0226039,5.36751e-07,1.07417e-06,-0.00994285,0.0144271,125.382,-4.8966,635.902,-0.00154768,-0.00176554,-5.82751,878,587.285,0.25,-0.25,0.0735,-0.00154628,0.00774806,7.21033e-08,-0.00834357,-0.000674864,0.0226039,5.36751e-07,1.07417e-06,-0.00994285,0.0144271,125.382,-4.8966,635.902,-0.00154768,-0.00176554,-5.82751,878,587.285,0.25,-0.25,0.0735,-0.00154628,0.00774806,7.21033e-08,-0.00834357,-0.000674864,0.0226039,5.36751e-07,1.07417e-06,-0.00994285,0.0144271,125.382,-4.8966,635.902,-0.00154768,-0.00176554,-5.82751,878,587.285,0.25,-0.25,0.0735,-0.00154628,0.00774806,7.21033e-08,-0.00834357,-0.000674864,0.0226039,5.36751e-07,1.07417e-06,-0.00994285,0.0144271,125.382,-4.8966,635.902,-0.00154768,-0.00176554,-5.82751,878,587.285,0.25,-0.25,0.0735,-0.00154628,0.00774806,7.21033e-08,-0.00834357,-0.000674864,0.0226039,5.36751e-07,1.07417e-06,-0.00994285,0.0144271,125.382,-4.8966,635.902,-0.00154768,-0.00176554,-5.82751,878,0,0,0,0,0,0,0,0,0,0,0,0,0,0,0,0,0,0,0,0,0,1
stats,85,1,0.86,588.746,0.25,-0.25,0.0735,-0.00159709,0.00783755,7.55171e-08,-0.0086408,-0.000692612,0.0231754,5.5691e-07,1.11283e-06,-0.0102251,0.0150006,124.499,-4.74566,636.418,-0.00157673,-0.00126576,-6.85134,878,588.746,0.25,-0.25,0.0735,-0.00159709,0.00783755,7.55171e-08,-0.0086408,-0.000692612,0.0231754,5.5691e-07,1.11283e-06,-0.0102251,0.0150006,124.499,-4.74566,636.418,-0.00157673,-0.00126576,-6.85134,878,588.746,0.25,-0.25,0.0735,-0.00159709,0.00783755,7.55171e-08,-0.0086408,-0.000692612,0.0231754,5.5691e-07,1.11283e-06,-0.0102251,0.0150006,124.499,-4.74566,636.418,-0.00157673,-0.00126576,-6.85134,878,588.746,0.25,-0.25,0.0735,-0.00159709,0.00783755,7.55171e-08,-0.0086408,-0.000692612,0.0231754,5.5691e-07,1.11283e-06,-0.0102251,0.0150006,124.499,-4.74566,636.418,-0.00157673,-0.00126576,-6.85134,878,588.746,0.25,-0.25,0.0735,-0.00159709,0.00783755,7.55171e-08,-0.0086408,-0.000692612,0.0231754,5.5691e-07,1.11283e-06,-0.0102251,0.0150006,124.499,-4.74566,636.418,-0.00157673,-0.00126576,-6.85134,878,588.746,0.25,-0.25,0.0735,-0.00159709,0.00783755,7.55171e-08,-0.0086408,-0.000692612,0.0231754,5.5691e-07,1.11283e-06,-0.0102251,0.0150006,124.499,-4.74566,636.418,-0.00157673,-0.00126576,-6.85134,878,0,0,0,0,0,0,0,0,0,0,0,0,0,0,0,0,0,0,0,0,0,1
stats,86,1,0.87,590.471,0.25,-0.25,0.0735,-0.00164022,0.00791899,7.83697e-08,-0.00892916,-0.000731352,0.0237318,5.77051e-07,1.14914e-06,-0.0104991,0.0155547,123.779,-5.27226,637.189,-0.00186162,-0.00102462,-7.9496,878,590.471,0.25,-0.25,0.0735,-0.00164022,0.00791899,7.83697e-08,-0.00892916,-0.000731352,0.0237318,5.77051e-07,1.14914e-06,-0.0104991,0.0155547,123.779,-5.27226,637.189,-0.00186162,-0.00102462,-7.9496,878,590.471,0.25,-0.25,0.0735,-0.00164022,0.00791899,7.83697e-08,-0.00892916,-0.000731352,0.0237318,5.77051e-07,1.14914e-06,-0.0104991,0.0155547,123.779,-5.27226,637.189,-0.00186162,-0.00102462,-7.9496,878,590.471,0.25,-0.25,0.0735,-0.00164022,0.00791899,7.83697e-08,-0.00892916,-0.000731352,0.0237318,5.77051e-07,1.14914e-06,-0.0104991,0.0155547,123.779,-5.27226,637.189,-0.00186162,-0.00102462,-7.9496,878,590.471,0.25,-0.25,0.0735,-0.00164022,0.00791899,7.83697e-08,-0.00892916,-0.000731352,0.0237318,5.77051e-07,1.14914e-06,-0.0104991,0.0155547,123.779,-5.27226,637.189,-0.00186162,-0.00102462,-7.9496,878,590.471,0.25,-0.25,0.0735,-0.00164022,0.00791899,7.83697e-08,-0.00892916,-0.000731352,0.0237318,5.77051e-07,1.14914e-06,-0.0104991,0.0155547,123.779,-5.27226,637.189,-0.00186162,-0.00102462,-7.9496,878,0,0,0,0,0,0,0,0,0,0,0,0,0,0,0,0,0,0,0,0,0,1
stats,87,1,0.88,591.909,0.25,-0.25,0.0735,-0.00169127,0.00800789,8.18839e-08,-0.00923042,-0.000752028,0.0243115,5.96871e-07,1.1885e-06,-0.0107848,0.0161367,122.986,-5.1298,637.713,-0.0017956,-0.00103283,-8.97014,878,591.909,0.25,-0.25,0.0735,-0.00169127,0.00800789,8.18839e-08,-0.00923042,-0.000752028,0.0243115,5.96871e-07,1.1885e-06,-0.0107848,0.0161367,122.986,-5.1298,637.713,-0.0017956,-0.00103283,-8.97014,878,591.909,0.25,-0.25,0.0735,-0.00169127,0.00800789,8.18839e-08,-0.00923042,-0.000752028,0.0243115,5.96871e-07,1.1885e-06,-0.0107848,0.0161367,122.986,-5.1298,637.713,-0.0017956,-0.00103283,-8.97014,878,591.909,0.25,-0.25,0.0735,-0.00169127,0.00800789,8.18839e-08,-0.00923042,-0.000752028,0.0243115,5.96871e-07,1.1885e-06,-0.0107848,0.0161367,122.986,-5.1298,637.713,-0.0017956,-0.00103283,-8.97014,878,591.909,0.25,-0.25,0.0735,-0.00169127,0.00800789,8.18839e-08,-0.00923042,-0.000752028,0.0243115,5.96871e-07,1.1885e-06,-0.0107848,0.0161367,122.986,-5.1298,637.713,-0.0017956,-0.00103283,-8.97014,878,591.909,0.25,-0.25,0.0735,-0.00169127,0.00800789,8.18839e-08,-0.00923042,-0.000752028,0.0243115,5.96871e-07,1.1885e-06,-0.0107848,0.0161367,122.986,-5.1298,637.713,-0.0017956,-0.00103283,-8.97014,878,0,0,0,0,0,0,0,0,0,0,0,0,0,0,0,0,0,0,0,0,0,1
stats,88,1,0.89,593.589,0.25,-0.25,0.0735,-0.00173617,0.00808791,8.49584e-08,-0.00952902,-0.000795505,0.0248843,6.15606e-07,1.23328e-06,-0.0110672,0.0167089,122.134,-5.70568,638.331,-0.00197226,-0.00207967,-10.1579,878,593.589,0.25,-0.25,0.0735,-0.00173617,0.00808791,8.49584e-08,-0.00952902,-0.000795505,0.0248843,6.15606e-07,1.23328e-06,-0.0110672,0.0167089,122.134,-5.70568,638.331,-0.00197226,-0.00207967,-10.1579,878,593.589,0.25,-0.25,0.0735,-0.00173617,0.00808791,8.49584e-08,-0.00952902,-0.000795505,0.0248843,6.15606e-07,1.23328e-06,-0.0110672,0.0167089,122.134,-5.70568,638.331,-0.00197226,-0.00207967,-10.1579,878,593.589,0.25,-0.25,0.0735,-0.00173617,0.00808791,8.49584e-08,-0.00952902,-0.000795505,0.0248843,6.15606e-07,1.23328e-06,-0.0110672,0.0167089,122.134,-5.70568,638.331,-0.00197226,-0.00207967,-10.1579,878,593.589,0.25,-0.25,0.0735,-0.00173617,0.00808791,8.49584e-08,-0.00952902,-0.000795505,0.0248843,6.15606e-07,1.23328e-06,-0.0110672,0.0167089,122.134,-5.70568,638.331,-0.00197226,-0.00207967,-10.1579,878,593.589,0.25,-0.25,0.0735,-0.00173617,0.00808791,8.49584e-08,-0.00952902,-0.000795505,0.0248843,6.15606e-07,1.23328e-06,-0.0110672,0.0167089,122.134,-5.70568,638.331,-0.00197226,-0.00207967,-10.1579,878,0,0,0,0,0,0,0,0,0,0,0,0,0,0,0,0,0,0,0,0,0,1
stats,89,1,0.9,594.802,0.25,-0.25,0.0735,-0.00178715,0.00817681,8.85557e-08,-0.00983265,-0.000819107,0.0254686,6.3588e-07,1.27835e-06,-0.0113563,0.0172992,121.415,-5.55758,638.627,-0.00182063,-0.002665,-11.2163,878,594.802,0.25,-0.25,0.0735,-0.00178715,0.00817681,8.85557e-08,-0.00983265,-0.000819107,0.0254686,6.3588e-07,1.27835e-06,-0.0113563,0.0172992,121.415,-5.55758,638.627,-0.00182063,-0.002665,-11.2163,878,594.802,0.25,-0.25,0.0735,-0.00178715,0.00817681,8.85557e-08,-0.00983265,-0.000819107,0.0254686,6.3588e-07,1.27835e-06,-0.0113563,0.0172992,121.415,-5.55758,638.627,-0.00182063,-0.002665,-11.2163,878,594.802,0.25,-0.25,0.0735,-0.00178715,0.00817681,8.85557e-08,-0.00983265,-0.000819107,0.0254686,6.3588e-07,1.27835e-06,-0.0113563,0.0172992,121.415,-5.55758,638.627,-0.00182063,-0.002665,-11.2163,878,594.802,0.25,-0.25,0.0735,-0.00178715,0.00817681,8.85557e-08,-0.00983265,-0.000819107,0.0254686,6.3588e-07,1.27835e-06,-0.0113563,0.0172992,121.415,-5.55758,638.627,-0.00182063,-0.002665,-11.2163,878,594.802,0.25,-0.25,0.0735,-0.00178715,0.00817681,8.85557e-08,-0.00983265,-0.000819107,0.0254686,6.3588e-07,1.27835e-06,-0.0113563,0.0172992,121.415,-5.55758,638.627,-0.00182063,-0.002665,-11.2163,878,0,0,0,0,0,0,0,0,0,0,0,0,0,0,0,0,0,0,0,0,0,1
stats,90,1,0.91,596.861,0.25,-0.25,0.0735,-0.001834,0.00825676,9.23038e-08,-0.0101405,-0.000864745,0.0260544,6.49193e-07,1.29768e-06,-0.0116444,0.0178802,120.201,-6.09571,639.408,-0.000860041,0.0022337,-12.5601,878,596.861,0.25,-0.25,0.0735,-0.001834,0.00825676,9.23038e-08,-0.0101405,-0.000864745,0.0260544,6.49193e-07,1.29768e-06,-0.0116444,0.0178802,120.201,-6.09571,639.408,-0.000860041,0.0022337,-12.5601,878,596.861,0.25,-0.25,0.0735,-0.001834,0.00825676,9.23038e-08,-0.0101405,-0.000864745,0.0260544,6.49193e-07,1.29768e-06,-0.0116444,0.0178802,120.201,-6.09571,639.408,-0.000860041,0.0022337,-12.5601,878,596.861,0.25,-0.25,0.0735,-0.001834,0.00825676,9.23038e-08,-0.0101405,-0.000864745,0.0260544,6.49193e-07,1.29768e-06,-0.0116444,0.0178802,120.201,-6.09571,639.408,-0.000860041,0.0022337,-12.5601,878,596.861,0.25,-0.25,0.0735,-0.001834,0.00825676,9.23038e-08,-0.0101405,-0.000864745,0.0260544,6.49193e-07,1.29768e-06,-0.0116444,0.0178802,120.201,-6.09571,639.408,-0.000860041,0.0022337,-12.5601,878,596.861,0.25,-0.25,0.0735,-0.001834,0.00825676,9.23038e-08,-0.0101405,-0.000864745,0.0260544,6.49193e-07,1.29768e-06,-0.0116444,0.0178802,120.201,-6.09571,639.408,-0.000860041,0.0022337,-12.5601,878,0,0,0,0,0,0,0,0,0,0,0,0,0,0,0,0,0,0,0,0,0,1
stats,91,1,0.92,597.78,0.25,-0.25,0.0735,-0.00188492,0.00834449,9.61733e-08,-0.0104478,-0.000893187,0.0266451,6.68469e-07,1.3295e-06,-0.0119366,0.018481,119.628,-5.9874,639.47,-0.00101848,0.00235969,-13.5869,878,597.78,0.25,-0.25,0.0735,-0.00188492,0.00834449,9.61733e-08,-0.0104478,-0.000893187,0.0266451,6.68469e-07,1.3295e-06,-0.0119366,0.018481,119.628,-5.9874,639.47,-0.00101848,0.00235969,-13.5869,878,597.78,0.25,-0.25,0.0735,-0.00188492,0.00834449,9.61733e-08,-0.0104478,-0.000893187,0.0266451,6.68469e-07,1.3295e-06,-0.0119366,0.018481,119.628,-5.9874,639.47,-0.00101848,0.00235969,-13.5869,878,597.78,0.25,-0.25,0.0735,-0.00188492,0.00834449,9.61733e-08,-0.0104478,-0.000893187,0.0266451,6.68469e-07,1.3295e-06,-0.0119366,0.018481,119.628,-5.9874,639.47,-0.00101848,0.00235969,-13.5869,878,597.78,0.25,-0.25,0.0735,-0.00188492,0.00834449,9.61733e-08,-0.0104478,-0.000893187,0.0266451,6.68469e-07,1.3295e-06,-0.0119366,0.018481,119.628,-5.9874,639.47,-0.00101848,0.00235969,-13.5869,878,597.78,0.25,-0.25,0.0735,-0.00188492,0.00834449,9.61733e-08,-0.0104478,-0.000893187,0.0266451,6.68469e-07,1.3295e-06,-0.0119366,0.018481,119.628,-5.9874,639.47,-0.00101848,0.00235969,-13.5869,878,0,0,0,0,0,0,0,0,0,0,0,0,0,0,0,0,0,0,0,0,0,1
stats,92,1,0.93,599.742,0.25,-0.25,0.0735,-0.00193381,0.00842374,9.77981e-08,-0.0107669,-0.000945276,0.027245,6.72789e-07,1.28415e-06,-0.0122331,0.0190798,118.045,-6.57028,639.881,0.000570306,0.0185162,-15.1528,878,599.742,0.25,-0.25,0.0735,-0.00193381,0.00842374,9.77981e-08,-0.0107669,-0.000945276,0.027245,6.72789e-07,1.28415e-06,-0.0122331,0.0190798,118.045,-6.57028,639.881,0.000570306,0.0185162,-15.1528,878,599.742,0.25,-0.25,0.0735,-0.00193381,0.00842374,9.77981e-08,-0.0107669,-0.000945276,0.027245,6.72789e-07,1.28415e-06,-0.0122331,0.0190798,118.045,-6.57028,639.881,0.000570306,0.0185162,-15.1528,878,599.742,0.25,-0.25,0.0735,-0.00193381,0.00842374,9.77981e-08,-0.0107669,-0.000945276,0.027245,6.72789e-07,1.28415e-06,-0.0122331,0.0190798,118.045,-6.57028,639.881,0.000570306,0.0185162,-15.1528,878,599.742,0.25,-0.25,0.0735,-0.00193381,0.00842374,9.77981e-08,-0.0107669,-0.000945276,0.027245,6.72789e-07,1.28415e-06,-0.0122331,0.0190798,118.045,-6.57028,639.881,0.000570306,0.0185162,-15.1528,878,599.742,0.25,-0.25,0.0735,-0.00193381,0.00842374,9.77981e-08,-0.0107669,-0.000945276,0.027245,6.72789e-07,1.28415e-06,-0.0122331,0.0190798,118.045,-6.57028,639.881,0.000570306,0.0185162,-15.1528,878,0,0,0,0,0,0,0,0,0,0,0,0,0,0,0,0,0,0,0,0,0,1
stats,93,1,0.94,600.533,0.25,-0.25,0.0735,-0.00198625,0.00851147,1.01326e-07,-0.0110823,-0.000977818,0.027848,6.90615e-07,1.29966e-06,-0.012532,0.0196958,117.359,-6.46459,639.711,0.000130329,0.0185941,-16.2752,878,600.533,0.25,-0.25,0.0735,-0.00198625,0.00851147,1.01326e-07,-0.0110823,-0.000977818,0.027848,6.90615e-07,1.29966e-06,-0.012532,0.0196958,117.359,-6.46459,639.711,0.000130329,0.0185941,-16.2752,878,600.533,0.25,-0.25,0.0735,-0.00198625,0.00851147,1.01326e-07,-0.0110823,-0.000977818,0.027848,6.90615e-07,1.29966e-06,-0.012532,0.0196958,117.359,-6.46459,639.711,0.000130329,0.0185941,-16.2752,878,600.533,0.25,-0.25,0.0735,-0.00198625,0.00851147,1.01326e-07,-0.0110823,-0.000977818,0.027848,6.90615e-07,1.29966e-06,-0.012532,0.0196958,117.359,-6.46459,639.711,0.000130329,0.0185941,-16.2752,878,600.533,0.25,-0.25,0.0735,-0.00198625,0.00851147,1.01326e-07,-0.0110823,-0.000977818,0.027848,6.90615e-07,1.29966e-06,-0.012532,0.0196958,117.359,-6.46459,639.711,0.000130329,0.0185941,-16.2752,878,600.533,0.25,-0.25,0.0735,-0.00198625,0.00851147,1.01326e-07,-0.0110823,-0.000977818,0.027848,6.90615e-07,1.29966e-06,-0.012532,0.0196958,117.359,-6.46459,639.711,0.000130329,0.0185941,-16.2752,878,0,0,0,0,0,0,0,0,0,0,0,0,0,0,0,0,0,0,0,0,0,1
stats,94,1,0.95,602.241,0.25,-0.25,0.0735,-0.00203565,0.00858983,1.01973e-07,-0.0114094,-0.00103715,0.0284538,7.28812e-07,1.27884e-06,-0.0128331,0.0203068,115.417,-7.12629,639.545,-0.00463835,0.028504,-18.1315,878,602.241,0.25,-0.25,0.0735,-0.00203565,0.00858983,1.01973e-07,-0.0114094,-0.00103715,0.0284538,7.28812e-07,1.27884e-06,-0.0128331,0.0203068,115.417,-7.12629,639.545,-0.00463835,0.028504,-18.1315,878,602.241,0.25,-0.25,0.0735,-0.00203565,0.00858983,1.01973e-07,-0.0114094,-0.00103715,0.0284538,7.28812e-07,1.27884e-06,-0.0128331,0.0203068,115.417,-7.12629,639.545,-0.00463835,0.028504,-18.1315,878,602.241,0.25,-0.25,0.0735,-0.00203565,0.00858983,1.01973e-07,-0.0114094,-0.00103715,0.0284538,7.28812e-07,1.27884e-06,-0.0128331,0.0203068,115.417,-7.12629,639.545,-0.00463835,0.028504,-18.1315,878,602.241,0.25,-0.25,0.0735,-0.00203565,0.00858983,1.01973e-07,-0.0114094,-0.00103715,0.0284538,7.28812e-07,1.27884e-06,-0.0128331,0.0203068,115.417,-7.12629,639.545,-0.00463835,0.028504,-18.1315,878,602.241,0.25,-0.25,0.0735,-0.00203565,0.00858983,1.01973e-07,-0.0114094,-0.00103715,0.0284538,7.28812e-07,1.27884e-06,-0.0128331,0.0203068,115.417,-7.12629,639.545,-0.00463835,0.028504,-18.1315,878,0,0,0,0,0,0,0,0,0,0,0,0,0,0,0,0,0,0,0,0,0,1
stats,95,1,0.96,603.146,0.25,-0.25,0.0735,-0.00208708,0.0086769,1.07588e-07,-0.0117235,-0.00106946,0.0290553,7.40624e-07,1.32063e-06,-0.0131303,0.0209193,114.824,-6.93783,639.536,-0.00317575,0.0228735,-19.2403,878,603.146,0.25,-0.25,0.0735,-0.00208708,0.0086769,1.07588e-07,-0.0117235,-0.00106946,0.0290553,7.40624e-07,1.32063e-06,-0.0131303,0.0209193,114.824,-6.93783,639.536,-0.00317575,0.0228735,-19.2403,878,603.146,0.25,-0.25,0.0735,-0.00208708,0.0086769,1.07588e-07,-0.0117235,-0.00106946,0.0290553,7.40624e-07,1.32063e-06,-0.0131303,0.0209193,114.824,-6.93783,639.536,-0.00317575,0.0228735,-19.2403,878,603.146,0.25,-0.25,0.0735,-0.00208708,0.0086769,1.07588e-07,-0.0117235,-0.00106946,0.0290553,7.40624e-07,1.32063e-06,-0.0131303,0.0209193,114.824,-6.93783,639.536,-0.00317575,0.0228735,-19.2403,878,603.146,0.25,-0.25,0.0735,-0.00208708,0.0086769,1.07588e-07,-0.0117235,-0.00106946,0.0290553,7.40624e-07,1.32063e-06,-0.0131303,0.0209193,114.824,-6.93783,639.536,-0.00317575,0.0228735,-19.2403,878,603.146,0.25,-0.25,0.0735,-0.00208708,0.0086769,1.07588e-07,-0.0117235,-0.00106946,0.0290553,7.40624e-07,1.32063e-06,-0.0131303,0.0209193,114.824,-6.93783,639.536,-0.00317575,0.0228735,-19.2403,878,0,0,0,0,0,0,0,0,0,0,0,0,0,0,0,0,0,0,0,0,0,1
stats,96,1,0.97,604.451,0.25,-0.25,0.0735,-0.00214194,0.00875467,1.13393e-07,-0.0120781,-0.00114014,0.0296882,7.738e-07,1.39026e-06,-0.0134487,0.0215731,111.854,-7.74319,638.108,-0.00380809,0.0188821,-21.8476,878,604.451,0.25,-0.25,0.0735,-0.00214194,0.00875467,1.13393e-07,-0.0120781,-0.00114014,0.0296882,7.738e-07,1.39026e-06,-0.0134487,0.0215731,111.854,-7.74319,638.108,-0.00380809,0.0188821,-21.8476,878,604.451,0.25,-0.25,0.0735,-0.00214194,0.00875467,1.13393e-07,-0.0120781,-0.00114014,0.0296882,7.738e-07,1.39026e-06,-0.0134487,0.0215731,111.854,-7.74319,638.108,-0.00380809,0.0188821,-21.8476,878,604.451,0.25,-0.25,0.0735,-0.00214194,0.00875467,1.13393e-07,-0.0120781,-0.00114014,0.0296882,7.738e-07,1.39026e-06,-0.0134487,0.0215731,111.854,-7.74319,638.108,-0.00380809,0.0188821,-21.8476,878,604.451,0.25,-0.25,0.0735,-0.00214194,0.00875467,1.13393e-07,-0.0120781,-0.00114014,0.0296882,7.738e-07,1.39026e-06,-0.0134487,0.0215731,111.854,-7.74319,638.108,-0.00380809,0.0188821,-21.8476,878,604.451,0.25,-0.25,0.0735,-0.00214194,0.00875467,1.13393e-07,-0.0120781,-0.00114014,0.0296882,7.738e-07,1.39026e-06,-0.0134487,0.0215731,111.854,-7.74319,638.108,-0.00380809,0.0188821,-21.8476,878,0,0,0,0,0,0,0,0,0,0,0,0,0,0,0,0,0,0,0,0,0,1
stats,97,1,0.98,605.151,0.25,-0.25,0.0735,-0.0021919,0.00884163,1.17109e-07,-0.0123892,-0.00117443,0.0302889,7.91991e-07,1.45328e-06,-0.0137445,0.0221867,111.57,-7.46804,638.166,-0.00330841,0.0114589,-22.7039,878,605.151,0.25,-0.25,0.0735,-0.0021919,0.00884163,1.17109e-07,-0.0123892,-0.00117443,0.0302889,7.91991e-07,1.45328e-06,-0.0137445,0.0221867,111.57,-7.46804,638.166,-0.00330841,0.0114589,-22.7039,878,605.151,0.25,-0.25,0.0735,-0.0021919,0.00884163,1.17109e-07,-0.0123892,-0.00117443,0.0302889,7.91991e-07,1.45328e-06,-0.0137445,0.0221867,111.57,-7.46804,638.166,-0.00330841,0.0114589,-22.7039,878,605.151,0.25,-0.25,0.0735,-0.0021919,0.00884163,1.17109e-07,-0.0123892,-0.00117443,0.0302889,7.91991e-07,1.45328e-06,-0.0137445,0.0221867,111.57,-7.46804,638.166,-0.00330841,0.0114589,-22.7039,878,605.151,0.25,-0.25,0.0735,-0.0021919,0.00884163,1.17109e-07,-0.0123892,-0.00117443,0.0302889,7.91991e-07,1.45328e-06,-0.0137445,0.0221867,111.57,-7.46804,638.166,-0.00330841,0.0114589,-22.7039,878,605.151,0.25,-0.25,0.0735,-0.0021919,0.00884163,1.17109e-07,-0.0123892,-0.00117443,0.0302889,7.91991e-07,1.45328e-06,-0.0137445,0.0221867,111.57,-7.46804,638.166,-0.00330841,0.0114589,-22.7039,878,0,0,0,0,0,0,0,0,0,0,0,0,0,0,0,0,0,0,0,0,0,1
stats,98,1,0.99,606.548,0.25,-0.25,0.0735,-0.00224726,0.00891746,1.24608e-07,-0.012749,-0.00125381,0.0309327,8.6589e-07,1.53204e-06,-0.0140654,0.0228488,109.354,-8.41291,636.843,-0.00488969,0.0219211,-25.6558,878,606.548,0.25,-0.25,0.0735,-0.00224726,0.00891746,1.24608e-07,-0.012749,-0.00125381,0.0309327,8.6589e-07,1.53204e-06,-0.0140654,0.0228488,109.354,-8.41291,636.843,-0.00488969,0.0219211,-25.6558,878,606.548,0.25,-0.25,0.0735,-0.00224726,0.00891746,1.24608e-07,-0.012749,-0.00125381,0.0309327,8.6589e-07,1.53204e-06,-0.0140654,0.0228488,109.354,-8.41291,636.843,-0.00488969,0.0219211,-25.6558,878,606.548,0.25,-0.25,0.0735,-0.00224726,0.00891746,1.24608e-07,-0.012749,-0.00125381,0.0309327,8.6589e-07,1.53204e-06,-0.0140654,0.0228488,109.354,-8.41291,636.843,-0.00488969,0.0219211,-25.6558,878,606.548,0.25,-0.25,0.0735,-0.00224726,0.00891746,1.24608e-07,-0.012749,-0.00125381,0.0309327,8.6589e-07,1.53204e-06,-0.0140654,0.0228488,109.354,-8.41291,636.843,-0.00488969,0.0219211,-25.6558,878,606.548,0.25,-0.25,0.0735,-0.00224726,0.00891746,1.24608e-07,-0.012749,-0.00125381,0.0309327,8.6589e-07,1.53204e-06,-0.0140654,0.0228488,109.354,-8.41291,636.843,-0.00488969,0.0219211,-25.6558,878,0,0,0,0,0,0,0,0,0,0,0,0,0,0,0,0,0,0,0,0,0,1
stats,99,1,1,607.387,0.25,-0.25,0.0735,-0.00229706,0.00900511,1.31285e-07,-0.0130561,-0.00128709,0.031531,8.86098e-07,1.59296e-06,-0.01436,0.0234579,109.048,-7.98514,637.187,-0.0044625,0.0141651,-26.2934,878,607.387,0.25,-0.25,0.0735,-0.00229706,0.00900511,1.31285e-07,-0.0130561,-0.00128709,0.031531,8.86098e-07,1.59296e-06,-0.01436,0.0234579,109.048,-7.98514,637.187,-0.0044625,0.0141651,-26.2934,878,607.387,0.25,-0.25,0.0735,-0.00229706,0.00900511,1.31285e-07,-0.0130561,-0.00128709,0.031531,8.86098e-07,1.59296e-06,-0.01436,0.0234579,109.048,-7.98514,637.187,-0.0044625,0.0141651,-26.2934,878,607.387,0.25,-0.25,0.0735,-0.00229706,0.00900511,1.31285e-07,-0.0130561,-0.00128709,0.031531,8.86098e-07,1.59296e-06,-0.01436,0.0234579,109.048,-7.98514,637.187,-0.0044625,0.0141651,-26.2934,878,607.387,0.25,-0.25,0.0735,-0.00229706,0.00900511,1.31285e-07,-0.0130561,-0.00128709,0.031531,8.86098e-07,1.59296e-06,-0.01436,0.0234579,109.048,-7.98514,637.187,-0.0044625,0.0141651,-26.2934,878,607.387,0.25,-0.25,0.0735,-0.00229706,0.00900511,1.31285e-07,-0.0130561,-0.00128709,0.031531,8.86098e-07,1.59296e-06,-0.01436,0.0234579,109.048,-7.98514,637.187,-0.0044625,0.0141651,-26.2934,878,0,0,0,0,0,0,0,0,0,0,0,0,0,0,0,0,0,0,0,0,0,1
