Block Name,Row ID,N,Time,avg(VonMises),avg(X),avg(Y),avg(Z),avg(dx),avg(dy),avg(dz),avg(e11),avg(e12),avg(e22),avg(e23),avg(e31),avg(e33),avg(lambda),avg(s11),avg(s12),avg(s22),avg(s23),avg(s31),avg(s33),avg(vtkOriginalPointIds),max(VonMises),max(X),max(Y),max(Z),max(dx),max(dy),max(dz),max(e11),max(e12),max(e22),max(e23),max(e31),max(e33),max(lambda),max(s11),max(s12),max(s22),max(s23),max(s31),max(s33),max(vtkOriginalPointIds),med(VonMises),med(X),med(Y),med(Z),med(dx),med(dy),med(dz),med(e11),med(e12),med(e22),med(e23),med(e31),med(e33),med(lambda),med(s11),med(s12),med(s22),med(s23),med(s31),med(s33),med(vtkOriginalPointIds),min(VonMises),min(X),min(Y),min(Z),min(dx),min(dy),min(dz),min(e11),min(e12),min(e22),min(e23),min(e31),min(e33),min(lambda),min(s11),min(s12),min(s22),min(s23),min(s31),min(s33),min(vtkOriginalPointIds),q1(VonMises),q1(X),q1(Y),q1(Z),q1(dx),q1(dy),q1(dz),q1(e11),q1(e12),q1(e22),q1(e23),q1(e31),q1(e33),q1(lambda),q1(s11),q1(s12),q1(s22),q1(s23),q1(s31),q1(s33),q1(vtkOriginalPointIds),q3(VonMises),q3(X),q3(Y),q3(Z),q3(dx),q3(dy),q3(dz),q3(e11),q3(e12),q3(e22),q3(e23),q3(e31),q3(e33),q3(lambda),q3(s11),q3(s12),q3(s22),q3(s23),q3(s31),q3(s33),q3(vtkOriginalPointIds),std(VonMises),std(X),std(Y),std(Z),std(dx),std(dy),std(dz),std(e11),std(e12),std(e22),std(e23),std(e31),std(e33),std(lambda),std(s11),std(s12),std(s22),std(s23),std(s31),std(s33),std(vtkOriginalPointIds),vtkValidPointMask
stats,0,1,0.01,11.0775,0.25,-0.25,0.0735,-8.20253e-06,9.03742e-05,7.23535e-15,-2.49917e-05,-6.96154e-06,0.000162306,-2.57005e-15,5.76615e-15,-5.77408e-05,0,1.86784,-0.187426,11.9531,-6.91937e-11,1.55242e-10,0.104425,878,11.0775,0.25,-0.25,0.0735,-8.20253e-06,9.03742e-05,7.23535e-15,-2.49917e-05,-6.96154e-06,0.000162306,-2.57005e-15,5.76615e-15,-5.77408e-05,0,1.86784,-0.187426,11.9531,-6.91937e-11,1.55242e-10,0.104425,878,11.0775,0.25,-0.25,0.0735,-8.20253e-06,9.03742e-05,7.23535e-15,-2.49917e-05,-6.96154e-06,0.000162306,-2.57005e-15,5.76615e-15,-5.77408e-05,0,1.86784,-0.187426,11.9531,-6.91937e-11,1.55242e-10,0.104425,878,11.0775,0.25,-0.25,0.0735,-8.20253e-06,9.03742e-05,7.23535e-15,-2.49917e-05,-6.96154e-06,0.000162306,-2.57005e-15,5.76615e-15,-5.77408e-05,0,1.86784,-0.187426,11.9531,-6.91937e-11,1.55242e-10,0.104425,878,11.0775,0.25,-0.25,0.0735,-8.20253e-06,9.03742e-05,7.23535e-15,-2.49917e-05,-6.96154e-06,0.000162306,-2.57005e-15,5.76615e-15,-5.77408e-05,0,1.86784,-0.187426,11.9531,-6.91937e-11,1.55242e-10,0.104425,878,11.0775,0.25,-0.25,0.0735,-8.20253e-06,9.03742e-05,7.23535e-15,-2.49917e-05,-6.96154e-06,0.000162306,-2.57005e-15,5.76615e-15,-5.77408e-05,0,1.86784,-0.187426,11.9531,-6.91937e-11,1.55242e-10,0.104425,878,0,0,0,0,0,0,0,0,0,0,0,0,0,0,0,0,0,0,0,0,0,1
stats,1,1,0.02,22.1551,0.25,-0.25,0.0735,-1.64051e-05,0.000180748,1.58606e-14,-4.99834e-05,-1.39231e-05,0.000324612,-5.09926e-15,1.15374e-14,-0.000115482,0,3.73567,-0.374852,23.9062,-1.37288e-10,3.10622e-10,0.208851,878,22.1551,0.25,-0.25,0.0735,-1.64051e-05,0.000180748,1.58606e-14,-4.99834e-05,-1.39231e-05,0.000324612,-5.09926e-15,1.15374e-14,-0.000115482,0,3.73567,-0.374852,23.9062,-1.37288e-10,3.10622e-10,0.208851,878,22.1551,0.25,-0.25,0.0735,-1.64051e-05,0.000180748,1.58606e-14,-4.99834e-05,-1.39231e-05,0.000324612,-5.09926e-15,1.15374e-14,-0.000115482,0,3.73567,-0.374852,23.9062,-1.37288e-10,3.10622e-10,0.208851,878,22.1551,0.25,-0.25,0.0735,-1.64051e-05,0.000180748,1.58606e-14,-4.99834e-05,-1.39231e-05,0.000324612,-5.09926e-15,1.15374e-14,-0.000115482,0,3.73567,-0.374852,23.9062,-1.37288e-10,3.10622e-10,0.208851,878,22.1551,0.25,-0.25,0.0735,-1.64051e-05,0.000180748,1.58606e-14,-4.99834e-05,-1.39231e-05,0.000324612,-5.09926e-15,1.15374e-14,-0.000115482,0,3.73567,-0.374852,23.9062,-1.37288e-10,3.10622e-10,0.208851,878,22.1551,0.25,-0.25,0.0735,-1.64051e-05,0.000180748,1.58606e-14,-4.99834e-05,-1.39231e-05,0.000324612,-5.09926e-15,1.15374e-14,-0.000115482,0,3.73567,-0.374852,23.9062,-1.37288e-10,3.10622e-10,0.208851,878,0,0,0,0,0,0,0,0,0,0,0,0,0,0,0,0,0,0,0,0,0,1
stats,2,1,0.03,33.2326,0.25,-0.25,0.0735,-2.46076e-05,0.000271123,2.44697e-14,-7.49751e-05,-2.08846e-05,0.000486918,-7.6293e-15,1.73085e-14,-0.000173222,0,5.60351,-0.562278,35.8593,-2.05404e-10,4.65999e-10,0.313276,878,33.2326,0.25,-0.25,0.0735,-2.46076e-05,0.000271123,2.44697e-14,-7.49751e-05,-2.08846e-05,0.000486918,-7.6293e-15,1.73085e-14,-0.000173222,0,5.60351,-0.562278,35.8593,-2.05404e-10,4.65999e-10,0.313276,878,33.2326,0.25,-0.25,0.0735,-2.46076e-05,0.000271123,2.44697e-14,-7.49751e-05,-2.08846e-05,0.000486918,-7.6293e-15,1.73085e-14,-0.000173222,0,5.60351,-0.562278,35.8593,-2.05404e-10,4.65999e-10,0.313276,878,33.2326,0.25,-0.25,0.0735,-2.46076e-05,0.000271123,2.44697e-14,-7.49751e-05,-2.08846e-05,0.000486918,-7.6293e-15,1.73085e-14,-0.000173222,0,5.60351,-0.562278,35.8593,-2.05404e-10,4.65999e-10,0.313276,878,33.2326,0.25,-0.25,0.0735,-2.46076e-05,0.000271123,2.44697e-14,-7.49751e-05,-2.08846e-05,0.000486918,-7.6293e-15,1.73085e-14,-0.000173222,0,5.60351,-0.562278,35.8593,-2.05404e-10,4.65999e-10,0.313276,878,33.2326,0.25,-0.25,0.0735,-2.46076e-05,0.000271123,2.44697e-14,-7.49751e-05,-2.08846e-05,0.000486918,-7.6293e-15,1.73085e-14,-0.000173222,0,5.60351,-0.562278,35.8593,-2.05404e-10,4.65999e-10,0.313276,878,0,0,0,0,0,0,0,0,0,0,0,0,0,0,0,0,0,0,0,0,0,1
stats,3,1,0.04,44.3101,0.25,-0.25,0.0735,-3.28101e-05,0.000361497,3.31028e-14,-9.99668e-05,-2.78461e-05,0.000649224,-1.01587e-14,2.30803e-14,-0.000230963,0,7.47134,-0.749704,47.8124,-2.73502e-10,6.21392e-10,0.417702,878,44.3101,0.25,-0.25,0.0735,-3.28101e-05,0.000361497,3.31028e-14,-9.99668e-05,-2.78461e-05,0.000649224,-1.01587e-14,2.30803e-14,-0.000230963,0,7.47134,-0.749704,47.8124,-2.73502e-10,6.21392e-10,0.417702,878,44.3101,0.25,-0.25,0.0735,-3.28101e-05,0.000361497,3.31028e-14,-9.99668e-05,-2.78461e-05,0.000649224,-1.01587e-14,2.30803e-14,-0.000230963,0,7.47134,-0.749704,47.8124,-2.73502e-10,6.21392e-10,0.417702,878,44.3101,0.25,-0.25,0.0735,-3.28101e-05,0.000361497,3.31028e-14,-9.99668e-05,-2.78461e-05,0.000649224,-1.01587e-14,2.30803e-14,-0.000230963,0,7.47134,-0.749704,47.8124,-2.73502e-10,6.21392e-10,0.417702,878,44.3101,0.25,-0.25,0.0735,-3.28101e-05,0.000361497,3.31028e-14,-9.99668e-05,-2.78461e-05,0.000649224,-1.01587e-14,2.30803e-14,-0.000230963,0,7.47134,-0.749704,47.8124,-2.73502e-10,6.21392e-10,0.417702,878,44.3101,0.25,-0.25,0.0735,-3.28101e-05,0.000361497,3.31028e-14,-9.99668e-05,-2.78461e-05,0.000649224,-1.01587e-14,2.30803e-14,-0.000230963,0,7.47134,-0.749704,47.8124,-2.73502e-10,6.21392e-10,0.417702,878,0,0,0,0,0,0,0,0,0,0,0,0,0,0,0,0,0,0,0,0,0,1
stats,4,1,0.05,55.3877,0.25,-0.25,0.0735,-4.10127e-05,0.000451871,4.16838e-14,-0.000124959,-3.48077e-05,0.00081153,-1.26881e-14,2.88512e-14,-0.000288704,0,9.33918,-0.93713,59.7655,-3.41603e-10,7.76764e-10,0.522127,878,55.3877,0.25,-0.25,0.0735,-4.10127e-05,0.000451871,4.16838e-14,-0.000124959,-3.48077e-05,0.00081153,-1.26881e-14,2.88512e-14,-0.000288704,0,9.33918,-0.93713,59.7655,-3.41603e-10,7.76764e-10,0.522127,878,55.3877,0.25,-0.25,0.0735,-4.10127e-05,0.000451871,4.16838e-14,-0.000124959,-3.48077e-05,0.00081153,-1.26881e-14,2.88512e-14,-0.000288704,0,9.33918,-0.93713,59.7655,-3.41603e-10,7.76764e-10,0.522127,878,55.3877,0.25,-0.25,0.0735,-4.10127e-05,0.000451871,4.16838e-14,-0.000124959,-3.48077e-05,0.00081153,-1.26881e-14,2.88512e-14,-0.000288704,0,9.33918,-0.93713,59.7655,-3.41603e-10,7.76764e-10,0.522127,878,55.3877,0.25,-0.25,0.0735,-4.10127e-05,0.000451871,4.16838e-14,-0.000124959,-3.48077e-05,0.00081153,-1.26881e-14,2.88512e-14,-0.000288704,0,9.33918,-0.93713,59.7655,-3.41603e-10,7.76764e-10,0.522127,878,55.3877,0.25,-0.25,0.0735,-4.10127e-05,0.000451871,4.16838e-14,-0.000124959,-3.48077e-05,0.00081153,-1.26881e-14,2.88512e-14,-0.000288704,0,9.33918,-0.93713,59.7655,-3.41603e-10,7.76764e-10,0.522127,878,0,0,0,0,0,0,0,0,0,0,0,0,0,0,0,0,0,0,0,0,0,1
stats,5,1,0.06,66.4652,0.25,-0.25,0.0735,-4.92152e-05,0.000542245,5.02624e-14,-0.00014995,-4.17692e-05,0.000973835,-1.52172e-14,3.46227e-14,-0.000346445,0,11.207,-1.12456,71.7185,-4.09694e-10,9.3215e-10,0.626553,878,66.4652,0.25,-0.25,0.0735,-4.92152e-05,0.000542245,5.02624e-14,-0.00014995,-4.17692e-05,0.000973835,-1.52172e-14,3.46227e-14,-0.000346445,0,11.207,-1.12456,71.7185,-4.09694e-10,9.3215e-10,0.626553,878,66.4652,0.25,-0.25,0.0735,-4.92152e-05,0.000542245,5.02624e-14,-0.00014995,-4.17692e-05,0.000973835,-1.52172e-14,3.46227e-14,-0.000346445,0,11.207,-1.12456,71.7185,-4.09694e-10,9.3215e-10,0.626553,878,66.4652,0.25,-0.25,0.0735,-4.92152e-05,0.000542245,5.02624e-14,-0.00014995,-4.17692e-05,0.000973835,-1.52172e-14,3.46227e-14,-0.000346445,0,11.207,-1.12456,71.7185,-4.09694e-10,9.3215e-10,0.626553,878,66.4652,0.25,-0.25,0.0735,-4.92152e-05,0.000542245,5.02624e-14,-0.00014995,-4.17692e-05,0.000973835,-1.52172e-14,3.46227e-14,-0.000346445,0,11.207,-1.12456,71.7185,-4.09694e-10,9.3215e-10,0.626553,878,66.4652,0.25,-0.25,0.0735,-4.92152e-05,0.000542245,5.02624e-14,-0.00014995,-4.17692e-05,0.000973835,-1.52172e-14,3.46227e-14,-0.000346445,0,11.207,-1.12456,71.7185,-4.09694e-10,9.3215e-10,0.626553,878,0,0,0,0,0,0,0,0,0,0,0,0,0,0,0,0,0,0,0,0,0,1
stats,6,1,0.07,77.5428,0.25,-0.25,0.0735,-5.74177e-05,0.000632619,5.88349e-14,-0.000174942,-4.87308e-05,0.00113614,-1.77449e-14,4.03941e-14,-0.000404185,0,13.0749,-1.31198,83.6716,-4.77748e-10,1.08753e-09,0.730978,878,77.5428,0.25,-0.25,0.0735,-5.74177e-05,0.000632619,5.88349e-14,-0.000174942,-4.87308e-05,0.00113614,-1.77449e-14,4.03941e-14,-0.000404185,0,13.0749,-1.31198,83.6716,-4.77748e-10,1.08753e-09,0.730978,878,77.5428,0.25,-0.25,0.0735,-5.74177e-05,0.000632619,5.88349e-14,-0.000174942,-4.87308e-05,0.00113614,-1.77449e-14,4.03941e-14,-0.000404185,0,13.0749,-1.31198,83.6716,-4.77748e-10,1.08753e-09,0.730978,878,77.5428,0.25,-0.25,0.0735,-5.74177e-05,0.000632619,5.88349e-14,-0.000174942,-4.87308e-05,0.00113614,-1.77449e-14,4.03941e-14,-0.000404185,0,13.0749,-1.31198,83.6716,-4.77748e-10,1.08753e-09,0.730978,878,77.5428,0.25,-0.25,0.0735,-5.74177e-05,0.000632619,5.88349e-14,-0.000174942,-4.87308e-05,0.00113614,-1.77449e-14,4.03941e-14,-0.000404185,0,13.0749,-1.31198,83.6716,-4.77748e-10,1.08753e-09,0.730978,878,77.5428,0.25,-0.25,0.0735,-5.74177e-05,0.000632619,5.88349e-14,-0.000174942,-4.87308e-05,0.00113614,-1.77449e-14,4.03941e-14,-0.000404185,0,13.0749,-1.31198,83.6716,-4.77748e-10,1.08753e-09,0.730978,878,0,0,0,0,0,0,0,0,0,0,0,0,0,0,0,0,0,0,0,0,0,1
stats,7,1,0.08,88.6203,0.25,-0.25,0.0735,-6.56203e-05,0.000722994,6.74258e-14,-0.000199934,-5.56923e-05,0.00129845,-2.02763e-14,4.61653e-14,-0.000461926,0,14.9427,-1.49941,95.6247,-5.459e-10,1.24291e-09,0.835404,878,88.6203,0.25,-0.25,0.0735,-6.56203e-05,0.000722994,6.74258e-14,-0.000199934,-5.56923e-05,0.00129845,-2.02763e-14,4.61653e-14,-0.000461926,0,14.9427,-1.49941,95.6247,-5.459e-10,1.24291e-09,0.835404,878,88.6203,0.25,-0.25,0.0735,-6.56203e-05,0.000722994,6.74258e-14,-0.000199934,-5.56923e-05,0.00129845,-2.02763e-14,4.61653e-14,-0.000461926,0,14.9427,-1.49941,95.6247,-5.459e-10,1.24291e-09,0.835404,878,88.6203,0.25,-0.25,0.0735,-6.56203e-05,0.000722994,6.74258e-14,-0.000199934,-5.56923e-05,0.00129845,-2.02763e-14,4.61653e-14,-0.000461926,0,14.9427,-1.49941,95.6247,-5.459e-10,1.24291e-09,0.835404,878,88.6203,0.25,-0.25,0.0735,-6.56203e-05,0.000722994,6.74258e-14,-0.000199934,-5.56923e-05,0.00129845,-2.02763e-14,4.61653e-14,-0.000461926,0,14.9427,-1.49941,95.6247,-5.459e-10,1.24291e-09,0.835404,878,88.6203,0.25,-0.25,0.0735,-6.56203e-05,0.000722994,6.74258e-14,-0.000199934,-5.56923e-05,0.00129845,-2.02763e-14,4.61653e-14,-0.000461926,0,14.9427,-1.49941,95.6247,-5.459e-10,1.24291e-09,0.835404,878,0,0,0,0,0,0,0,0,0,0,0,0,0,0,0,0,0,0,0,0,0,1
stats,8,1,0.09,99.6978,0.25,-0.25,0.0735,-7.38228e-05,0.000813368,7.6039e-14,-0.000224925,-6.26538e-05,0.00146075,-2.28079e-14,5.19363e-14,-0.000519667,0,16.8105,-1.68683,107.578,-6.14059e-10,1.39828e-09,0.939829,878,99.6978,0.25,-0.25,0.0735,-7.38228e-05,0.000813368,7.6039e-14,-0.000224925,-6.26538e-05,0.00146075,-2.28079e-14,5.19363e-14,-0.000519667,0,16.8105,-1.68683,107.578,-6.14059e-10,1.39828e-09,0.939829,878,99.6978,0.25,-0.25,0.0735,-7.38228e-05,0.000813368,7.6039e-14,-0.000224925,-6.26538e-05,0.00146075,-2.28079e-14,5.19363e-14,-0.000519667,0,16.8105,-1.68683,107.578,-6.14059e-10,1.39828e-09,0.939829,878,99.6978,0.25,-0.25,0.0735,-7.38228e-05,0.000813368,7.6039e-14,-0.000224925,-6.26538e-05,0.00146075,-2.28079e-14,5.19363e-14,-0.000519667,0,16.8105,-1.68683,107.578,-6.14059e-10,1.39828e-09,0.939829,878,99.6978,0.25,-0.25,0.0735,-7.38228e-05,0.000813368,7.6039e-14,-0.000224925,-6.26538e-05,0.00146075,-2.28079e-14,5.19363e-14,-0.000519667,0,16.8105,-1.68683,107.578,-6.14059e-10,1.39828e-09,0.939829,878,99.6978,0.25,-0.25,0.0735,-7.38228e-05,0.000813368,7.6039e-14,-0.000224925,-6.26538e-05,0.00146075,-2.28079e-14,5.19363e-14,-0.000519667,0,16.8105,-1.68683,107.578,-6.14059e-10,1.39828e-09,0.939829,878,0,0,0,0,0,0,0,0,0,0,0,0,0,0,0,0,0,0,0,0,0,1
stats,9,1,0.1,110.775,0.25,-0.25,0.0735,-8.20253e-05,0.000903742,8.46611e-14,-0.000249917,-6.96154e-05,0.00162306,-2.53367e-14,5.77075e-14,-0.000577408,0,18.6784,-1.87426,119.531,-6.82142e-10,1.55366e-09,1.04425,878,110.775,0.25,-0.25,0.0735,-8.20253e-05,0.000903742,8.46611e-14,-0.000249917,-6.96154e-05,0.00162306,-2.53367e-14,5.77075e-14,-0.000577408,0,18.6784,-1.87426,119.531,-6.82142e-10,1.55366e-09,1.04425,878,110.775,0.25,-0.25,0.0735,-8.20253e-05,0.000903742,8.46611e-14,-0.000249917,-6.96154e-05,0.00162306,-2.53367e-14,5.77075e-14,-0.000577408,0,18.6784,-1.87426,119.531,-6.82142e-10,1.55366e-09,1.04425,878,110.775,0.25,-0.25,0.0735,-8.20253e-05,0.000903742,8.46611e-14,-0.000249917,-6.96154e-05,0.00162306,-2.53367e-14,5.77075e-14,-0.000577408,0,18.6784,-1.87426,119.531,-6.82142e-10,1.55366e-09,1.04425,878,110.775,0.25,-0.25,0.0735,-8.20253e-05,0.000903742,8.46611e-14,-0.000249917,-6.96154e-05,0.00162306,-2.53367e-14,5.77075e-14,-0.000577408,0,18.6784,-1.87426,119.531,-6.82142e-10,1.55366e-09,1.04425,878,110.775,0.25,-0.25,0.0735,-8.20253e-05,0.000903742,8.46611e-14,-0.000249917,-6.96154e-05,0.00162306,-2.53367e-14,5.77075e-14,-0.000577408,0,18.6784,-1.87426,119.531,-6.82142e-10,1.55366e-09,1.04425,878,0,0,0,0,0,0,0,0,0,0,0,0,0,0,0,0,0,0,0,0,0,1
stats,10,1,0.11,121.853,0.25,-0.25,0.0735,-9.02279e-05,0.000994116,9.32409e-14,-0.000274909,-7.65769e-05,0.00178536,-2.78667e-14,6.3479e-14,-0.000635148,0,20.5462,-2.06169,131.484,-7.50257e-10,1.70905e-09,1.14868,878,121.853,0.25,-0.25,0.0735,-9.02279e-05,0.000994116,9.32409e-14,-0.000274909,-7.65769e-05,0.00178536,-2.78667e-14,6.3479e-14,-0.000635148,0,20.5462,-2.06169,131.484,-7.50257e-10,1.70905e-09,1.14868,878,121.853,0.25,-0.25,0.0735,-9.02279e-05,0.000994116,9.32409e-14,-0.000274909,-7.65769e-05,0.00178536,-2.78667e-14,6.3479e-14,-0.000635148,0,20.5462,-2.06169,131.484,-7.50257e-10,1.70905e-09,1.14868,878,121.853,0.25,-0.25,0.0735,-9.02279e-05,0.000994116,9.32409e-14,-0.000274909,-7.65769e-05,0.00178536,-2.78667e-14,6.3479e-14,-0.000635148,0,20.5462,-2.06169,131.484,-7.50257e-10,1.70905e-09,1.14868,878,121.853,0.25,-0.25,0.0735,-9.02279e-05,0.000994116,9.32409e-14,-0.000274909,-7.65769e-05,0.00178536,-2.78667e-14,6.3479e-14,-0.000635148,0,20.5462,-2.06169,131.484,-7.50257e-10,1.70905e-09,1.14868,878,121.853,0.25,-0.25,0.0735,-9.02279e-05,0.000994116,9.32409e-14,-0.000274909,-7.65769e-05,0.00178536,-2.78667e-14,6.3479e-14,-0.000635148,0,20.5462,-2.06169,131.484,-7.50257e-10,1.70905e-09,1.14868,878,0,0,0,0,0,0,0,0,0,0,0,0,0,0,0,0,0,0,0,0,0,1
stats,11,1,0.12,132.93,0.25,-0.25,0.0735,-9.84304e-05,0.00108449,1.01824e-13,-0.0002999,-8.35384e-05,0.00194767,-3.0397e-14,6.925e-14,-0.000692889,0,22.414,-2.24911,143.437,-8.18381e-10,1.86442e-09,1.25311,878,132.93,0.25,-0.25,0.0735,-9.84304e-05,0.00108449,1.01824e-13,-0.0002999,-8.35384e-05,0.00194767,-3.0397e-14,6.925e-14,-0.000692889,0,22.414,-2.24911,143.437,-8.18381e-10,1.86442e-09,1.25311,878,132.93,0.25,-0.25,0.0735,-9.84304e-05,0.00108449,1.01824e-13,-0.0002999,-8.35384e-05,0.00194767,-3.0397e-14,6.925e-14,-0.000692889,0,22.414,-2.24911,143.437,-8.18381e-10,1.86442e-09,1.25311,878,132.93,0.25,-0.25,0.0735,-9.84304e-05,0.00108449,1.01824e-13,-0.0002999,-8.35384e-05,0.00194767,-3.0397e-14,6.925e-14,-0.000692889,0,22.414,-2.24911,143.437,-8.18381e-10,1.86442e-09,1.25311,878,132.93,0.25,-0.25,0.0735,-9.84304e-05,0.00108449,1.01824e-13,-0.0002999,-8.35384e-05,0.00194767,-3.0397e-14,6.925e-14,-0.000692889,0,22.414,-2.24911,143.437,-8.18381e-10,1.86442e-09,1.25311,878,132.93,0.25,-0.25,0.0735,-9.84304e-05,0.00108449,1.01824e-13,-0.0002999,-8.35384e-05,0.00194767,-3.0397e-14,6.925e-14,-0.000692889,0,22.414,-2.24911,143.437,-8.18381e-10,1.86442e-09,1.25311,878,0,0,0,0,0,0,0,0,0,0,0,0,0,0,0,0,0,0,0,0,0,1
stats,12,1,0.13,144.008,0.25,-0.25,0.0735,-0.000106633,0.00117486,1.10494e-13,-0.000324892,-9.05e-05,0.00210998,-3.29271e-14,7.50212e-14,-0.00075063,0,24.2819,-2.43654,155.39,-8.86499e-10,2.0198e-09,1.35753,878,144.008,0.25,-0.25,0.0735,-0.000106633,0.00117486,1.10494e-13,-0.000324892,-9.05e-05,0.00210998,-3.29271e-14,7.50212e-14,-0.00075063,0,24.2819,-2.43654,155.39,-8.86499e-10,2.0198e-09,1.35753,878,144.008,0.25,-0.25,0.0735,-0.000106633,0.00117486,1.10494e-13,-0.000324892,-9.05e-05,0.00210998,-3.29271e-14,7.50212e-14,-0.00075063,0,24.2819,-2.43654,155.39,-8.86499e-10,2.0198e-09,1.35753,878,144.008,0.25,-0.25,0.0735,-0.000106633,0.00117486,1.10494e-13,-0.000324892,-9.05e-05,0.00210998,-3.29271e-14,7.50212e-14,-0.00075063,0,24.2819,-2.43654,155.39,-8.86499e-10,2.0198e-09,1.35753,878,144.008,0.25,-0.25,0.0735,-0.000106633,0.00117486,1.10494e-13,-0.000324892,-9.05e-05,0.00210998,-3.29271e-14,7.50212e-14,-0.00075063,0,24.2819,-2.43654,155.39,-8.86499e-10,2.0198e-09,1.35753,878,144.008,0.25,-0.25,0.0735,-0.000106633,0.00117486,1.10494e-13,-0.000324892,-9.05e-05,0.00210998,-3.29271e-14,7.50212e-14,-0.00075063,0,24.2819,-2.43654,155.39,-8.86499e-10,2.0198e-09,1.35753,878,0,0,0,0,0,0,0,0,0,0,0,0,0,0,0,0,0,0,0,0,0,1
stats,13,1,0.14,155.086,0.25,-0.25,0.0735,-0.000114835,0.00126524,1.19101e-13,-0.000349884,-9.74615e-05,0.00227228,-3.54559e-14,8.07925e-14,-0.000808371,0,26.1497,-2.62396,167.343,-9.54583e-10,2.17518e-09,1.46196,878,155.086,0.25,-0.25,0.0735,-0.000114835,0.00126524,1.19101e-13,-0.000349884,-9.74615e-05,0.00227228,-3.54559e-14,8.07925e-14,-0.000808371,0,26.1497,-2.62396,167.343,-9.54583e-10,2.17518e-09,1.46196,878,155.086,0.25,-0.25,0.0735,-0.000114835,0.00126524,1.19101e-13,-0.000349884,-9.74615e-05,0.00227228,-3.54559e-14,8.07925e-14,-0.000808371,0,26.1497,-2.62396,167.343,-9.54583e-10,2.17518e-09,1.46196,878,155.086,0.25,-0.25,0.0735,-0.000114835,0.00126524,1.19101e-13,-0.000349884,-9.74615e-05,0.00227228,-3.54559e-14,8.07925e-14,-0.000808371,0,26.1497,-2.62396,167.343,-9.54583e-10,2.17518e-09,1.46196,878,155.086,0.25,-0.25,0.0735,-0.000114835,0.00126524,1.19101e-13,-0.000349884,-9.74615e-05,0.00227228,-3.54559e-14,8.07925e-14,-0.000808371,0,26.1497,-2.62396,167.343,-9.54583e-10,2.17518e-09,1.46196,878,155.086,0.25,-0.25,0.0735,-0.000114835,0.00126524,1.19101e-13,-0.000349884,-9.74615e-05,0.00227228,-3.54559e-14,8.07925e-14,-0.000808371,0,26.1497,-2.62396,167.343,-9.54583e-10,2.17518e-09,1.46196,878,0,0,0,0,0,0,0,0,0,0,0,0,0,0,0,0,0,0,0,0,0,1
stats,14,1,0.15,166.163,0.25,-0.25,0.0735,-0.000123038,0.00135561,1.27738e-13,-0.000374876,-0.000104423,0.00243459,-3.79856e-14,8.65639e-14,-0.000866111,0,28.0175,-2.81139,179.296,-1.02269e-09,2.33057e-09,1.56638,878,166.163,0.25,-0.25,0.0735,-0.000123038,0.00135561,1.27738e-13,-0.000374876,-0.000104423,0.00243459,-3.79856e-14,8.65639e-14,-0.000866111,0,28.0175,-2.81139,179.296,-1.02269e-09,2.33057e-09,1.56638,878,166.163,0.25,-0.25,0.0735,-0.000123038,0.00135561,1.27738e-13,-0.000374876,-0.000104423,0.00243459,-3.79856e-14,8.65639e-14,-0.000866111,0,28.0175,-2.81139,179.296,-1.02269e-09,2.33057e-09,1.56638,878,166.163,0.25,-0.25,0.0735,-0.000123038,0.00135561,1.27738e-13,-0.000374876,-0.000104423,0.00243459,-3.79856e-14,8.65639e-14,-0.000866111,0,28.0175,-2.81139,179.296,-1.02269e-09,2.33057e-09,1.56638,878,166.163,0.25,-0.25,0.0735,-0.000123038,0.00135561,1.27738e-13,-0.000374876,-0.000104423,0.00243459,-3.79856e-14,8.65639e-14,-0.000866111,0,28.0175,-2.81139,179.296,-1.02269e-09,2.33057e-09,1.56638,878,166.163,0.25,-0.25,0.0735,-0.000123038,0.00135561,1.27738e-13,-0.000374876,-0.000104423,0.00243459,-3.79856e-14,8.65639e-14,-0.000866111,0,28.0175,-2.81139,179.296,-1.02269e-09,2.33057e-09,1.56638,878,0,0,0,0,0,0,0,0,0,0,0,0,0,0,0,0,0,0,0,0,0,1
stats,15,1,0.16,177.241,0.25,-0.25,0.0735,-0.000131241,0.00144599,1.36337e-13,-0.000399867,-0.000111385,0.00259689,-4.05181e-14,9.23347e-14,-0.000923852,0,29.8854,-2.99882,191.249,-1.09087e-09,2.48593e-09,1.67081,878,177.241,0.25,-0.25,0.0735,-0.000131241,0.00144599,1.36337e-13,-0.000399867,-0.000111385,0.00259689,-4.05181e-14,9.23347e-14,-0.000923852,0,29.8854,-2.99882,191.249,-1.09087e-09,2.48593e-09,1.67081,878,177.241,0.25,-0.25,0.0735,-0.000131241,0.00144599,1.36337e-13,-0.000399867,-0.000111385,0.00259689,-4.05181e-14,9.23347e-14,-0.000923852,0,29.8854,-2.99882,191.249,-1.09087e-09,2.48593e-09,1.67081,878,177.241,0.25,-0.25,0.0735,-0.000131241,0.00144599,1.36337e-13,-0.000399867,-0.000111385,0.00259689,-4.05181e-14,9.23347e-14,-0.000923852,0,29.8854,-2.99882,191.249,-1.09087e-09,2.48593e-09,1.67081,878,177.241,0.25,-0.25,0.0735,-0.000131241,0.00144599,1.36337e-13,-0.000399867,-0.000111385,0.00259689,-4.05181e-14,9.23347e-14,-0.000923852,0,29.8854,-2.99882,191.249,-1.09087e-09,2.48593e-09,1.67081,878,177.241,0.25,-0.25,0.0735,-0.000131241,0.00144599,1.36337e-13,-0.000399867,-0.000111385,0.00259689,-4.05181e-14,9.23347e-14,-0.000923852,0,29.8854,-2.99882,191.249,-1.09087e-09,2.48593e-09,1.67081,878,0,0,0,0,0,0,0,0,0,0,0,0,0,0,0,0,0,0,0,0,0,1
stats,16,1,0.17,188.318,0.25,-0.25,0.0735,-0.000139443,0.00153636,1.45018e-13,-0.000424859,-0.000118346,0.0027592,-4.30473e-14,9.81062e-14,-0.000981593,0,31.7532,-3.18624,203.203,-1.15897e-09,2.64132e-09,1.77523,878,188.318,0.25,-0.25,0.0735,-0.000139443,0.00153636,1.45018e-13,-0.000424859,-0.000118346,0.0027592,-4.30473e-14,9.81062e-14,-0.000981593,0,31.7532,-3.18624,203.203,-1.15897e-09,2.64132e-09,1.77523,878,188.318,0.25,-0.25,0.0735,-0.000139443,0.00153636,1.45018e-13,-0.000424859,-0.000118346,0.0027592,-4.30473e-14,9.81062e-14,-0.000981593,0,31.7532,-3.18624,203.203,-1.15897e-09,2.64132e-09,1.77523,878,188.318,0.25,-0.25,0.0735,-0.000139443,0.00153636,1.45018e-13,-0.000424859,-0.000118346,0.0027592,-4.30473e-14,9.81062e-14,-0.000981593,0,31.7532,-3.18624,203.203,-1.15897e-09,2.64132e-09,1.77523,878,188.318,0.25,-0.25,0.0735,-0.000139443,0.00153636,1.45018e-13,-0.000424859,-0.000118346,0.0027592,-4.30473e-14,9.81062e-14,-0.000981593,0,31.7532,-3.18624,203.203,-1.15897e-09,2.64132e-09,1.77523,878,188.318,0.25,-0.25,0.0735,-0.000139443,0.00153636,1.45018e-13,-0.000424859,-0.000118346,0.0027592,-4.30473e-14,9.81062e-14,-0.000981593,0,31.7532,-3.18624,203.203,-1.15897e-09,2.64132e-09,1.77523,878,0,0,0,0,0,0,0,0,0,0,0,0,0,0,0,0,0,0,0,0,0,1
stats,17,1,0.18,199.396,0.25,-0.25,0.0735,-0.000147646,0.00162674,1.5364e-13,-0.000449851,-0.000125308,0.00292151,-4.55742e-14,1.03878e-13,-0.00103933,0,33.621,-3.37367,215.156,-1.227e-09,2.79671e-09,1.87966,878,199.396,0.25,-0.25,0.0735,-0.000147646,0.00162674,1.5364e-13,-0.000449851,-0.000125308,0.00292151,-4.55742e-14,1.03878e-13,-0.00103933,0,33.621,-3.37367,215.156,-1.227e-09,2.79671e-09,1.87966,878,199.396,0.25,-0.25,0.0735,-0.000147646,0.00162674,1.5364e-13,-0.000449851,-0.000125308,0.00292151,-4.55742e-14,1.03878e-13,-0.00103933,0,33.621,-3.37367,215.156,-1.227e-09,2.79671e-09,1.87966,878,199.396,0.25,-0.25,0.0735,-0.000147646,0.00162674,1.5364e-13,-0.000449851,-0.000125308,0.00292151,-4.55742e-14,1.03878e-13,-0.00103933,0,33.621,-3.37367,215.156,-1.227e-09,2.79671e-09,1.87966,878,199.396,0.25,-0.25,0.0735,-0.000147646,0.00162674,1.5364e-13,-0.000449851,-0.000125308,0.00292151,-4.55742e-14,1.03878e-13,-0.00103933,0,33.621,-3.37367,215.156,-1.227e-09,2.79671e-09,1.87966,878,199.396,0.25,-0.25,0.0735,-0.000147646,0.00162674,1.5364e-13,-0.000449851,-0.000125308,0.00292151,-4.55742e-14,1.03878e-13,-0.00103933,0,33.621,-3.37367,215.156,-1.227e-09,2.79671e-09,1.87966,878,0,0,0,0,0,0,0,0,0,0,0,0,0,0,0,0,0,0,0,0,0,1
stats,18,1,0.19,210.473,0.25,-0.25,0.0735,-0.000155848,0.00171711,1.62222e-13,-0.000474842,-0.000132269,0.00308381,-4.81055e-14,1.09649e-13,-0.00109707,0,35.4889,-3.56109,227.109,-1.29515e-09,2.95209e-09,1.98408,878,210.473,0.25,-0.25,0.0735,-0.000155848,0.00171711,1.62222e-13,-0.000474842,-0.000132269,0.00308381,-4.81055e-14,1.09649e-13,-0.00109707,0,35.4889,-3.56109,227.109,-1.29515e-09,2.95209e-09,1.98408,878,210.473,0.25,-0.25,0.0735,-0.000155848,0.00171711,1.62222e-13,-0.000474842,-0.000132269,0.00308381,-4.81055e-14,1.09649e-13,-0.00109707,0,35.4889,-3.56109,227.109,-1.29515e-09,2.95209e-09,1.98408,878,210.473,0.25,-0.25,0.0735,-0.000155848,0.00171711,1.62222e-13,-0.000474842,-0.000132269,0.00308381,-4.81055e-14,1.09649e-13,-0.00109707,0,35.4889,-3.56109,227.109,-1.29515e-09,2.95209e-09,1.98408,878,210.473,0.25,-0.25,0.0735,-0.000155848,0.00171711,1.62222e-13,-0.000474842,-0.000132269,0.00308381,-4.81055e-14,1.09649e-13,-0.00109707,0,35.4889,-3.56109,227.109,-1.29515e-09,2.95209e-09,1.98408,878,210.473,0.25,-0.25,0.0735,-0.000155848,0.00171711,1.62222e-13,-0.000474842,-0.000132269,0.00308381,-4.81055e-14,1.09649e-13,-0.00109707,0,35.4889,-3.56109,227.109,-1.29515e-09,2.95209e-09,1.98408,878,0,0,0,0,0,0,0,0,0,0,0,0,0,0,0,0,0,0,0,0,0,1
stats,19,1,0.2,221.551,0.25,-0.25,0.0735,-0.000164051,0.00180748,1.70873e-13,-0.000499834,-0.000139231,0.00324612,-5.06354e-14,1.1542e-13,-0.00115482,0,37.3567,-3.74852,239.062,-1.36326e-09,3.10746e-09,2.08851,878,221.551,0.25,-0.25,0.0735,-0.000164051,0.00180748,1.70873e-13,-0.000499834,-0.000139231,0.00324612,-5.06354e-14,1.1542e-13,-0.00115482,0,37.3567,-3.74852,239.062,-1.36326e-09,3.10746e-09,2.08851,878,221.551,0.25,-0.25,0.0735,-0.000164051,0.00180748,1.70873e-13,-0.000499834,-0.000139231,0.00324612,-5.06354e-14,1.1542e-13,-0.00115482,0,37.3567,-3.74852,239.062,-1.36326e-09,3.10746e-09,2.08851,878,221.551,0.25,-0.25,0.0735,-0.000164051,0.00180748,1.70873e-13,-0.000499834,-0.000139231,0.00324612,-5.06354e-14,1.1542e-13,-0.00115482,0,37.3567,-3.74852,239.062,-1.36326e-09,3.10746e-09,2.08851,878,221.551,0.25,-0.25,0.0735,-0.000164051,0.00180748,1.70873e-13,-0.000499834,-0.000139231,0.00324612,-5.06354e-14,1.1542e-13,-0.00115482,0,37.3567,-3.74852,239.062,-1.36326e-09,3.10746e-09,2.08851,878,221.551,0.25,-0.25,0.0735,-0.000164051,0.00180748,1.70873e-13,-0.000499834,-0.000139231,0.00324612,-5.06354e-14,1.1542e-13,-0.00115482,0,37.3567,-3.74852,239.062,-1.36326e-09,3.10746e-09,2.08851,878,0,0,0,0,0,0,0,0,0,0,0,0,0,0,0,0,0,0,0,0,0,1
stats,20,1,0.21,232.628,0.25,-0.25,0.0735,-0.000172253,0.00189786,1.79495e-13,-0.000524826,-0.000146192,0.00340842,-5.31647e-14,1.21191e-13,-0.00121256,0,39.2246,-3.93595,251.015,-1.43136e-09,3.26284e-09,2.19294,878,232.628,0.25,-0.25,0.0735,-0.000172253,0.00189786,1.79495e-13,-0.000524826,-0.000146192,0.00340842,-5.31647e-14,1.21191e-13,-0.00121256,0,39.2246,-3.93595,251.015,-1.43136e-09,3.26284e-09,2.19294,878,232.628,0.25,-0.25,0.0735,-0.000172253,0.00189786,1.79495e-13,-0.000524826,-0.000146192,0.00340842,-5.31647e-14,1.21191e-13,-0.00121256,0,39.2246,-3.93595,251.015,-1.43136e-09,3.26284e-09,2.19294,878,232.628,0.25,-0.25,0.0735,-0.000172253,0.00189786,1.79495e-13,-0.000524826,-0.000146192,0.00340842,-5.31647e-14,1.21191e-13,-0.00121256,0,39.2246,-3.93595,251.015,-1.43136e-09,3.26284e-09,2.19294,878,232.628,0.25,-0.25,0.0735,-0.000172253,0.00189786,1.79495e-13,-0.000524826,-0.000146192,0.00340842,-5.31647e-14,1.21191e-13,-0.00121256,0,39.2246,-3.93595,251.015,-1.43136e-09,3.26284e-09,2.19294,878,232.628,0.25,-0.25,0.0735,-0.000172253,0.00189786,1.79495e-13,-0.000524826,-0.000146192,0.00340842,-5.31647e-14,1.21191e-13,-0.00121256,0,39.2246,-3.93595,251.015,-1.43136e-09,3.26284e-09,2.19294,878,0,0,0,0,0,0,0,0,0,0,0,0,0,0,0,0,0,0,0,0,0,1
stats,21,1,0.22,243.706,0.25,-0.25,0.0735,-0.000180456,0.00198823,1.88134e-13,-0.000549818,-0.000153154,0.00357073,-5.5694e-14,1.26963e-13,-0.0012703,0,41.0924,-4.12337,262.968,-1.49945e-09,3.41823e-09,2.29736,878,243.706,0.25,-0.25,0.0735,-0.000180456,0.00198823,1.88134e-13,-0.000549818,-0.000153154,0.00357073,-5.5694e-14,1.26963e-13,-0.0012703,0,41.0924,-4.12337,262.968,-1.49945e-09,3.41823e-09,2.29736,878,243.706,0.25,-0.25,0.0735,-0.000180456,0.00198823,1.88134e-13,-0.000549818,-0.000153154,0.00357073,-5.5694e-14,1.26963e-13,-0.0012703,0,41.0924,-4.12337,262.968,-1.49945e-09,3.41823e-09,2.29736,878,243.706,0.25,-0.25,0.0735,-0.000180456,0.00198823,1.88134e-13,-0.000549818,-0.000153154,0.00357073,-5.5694e-14,1.26963e-13,-0.0012703,0,41.0924,-4.12337,262.968,-1.49945e-09,3.41823e-09,2.29736,878,243.706,0.25,-0.25,0.0735,-0.000180456,0.00198823,1.88134e-13,-0.000549818,-0.000153154,0.00357073,-5.5694e-14,1.26963e-13,-0.0012703,0,41.0924,-4.12337,262.968,-1.49945e-09,3.41823e-09,2.29736,878,243.706,0.25,-0.25,0.0735,-0.000180456,0.00198823,1.88134e-13,-0.000549818,-0.000153154,0.00357073,-5.5694e-14,1.26963e-13,-0.0012703,0,41.0924,-4.12337,262.968,-1.49945e-09,3.41823e-09,2.29736,878,0,0,0,0,0,0,0,0,0,0,0,0,0,0,0,0,0,0,0,0,0,1
stats,22,1,0.23,254.783,0.25,-0.25,0.0735,-0.000188658,0.00207861,1.96735e-13,-0.000574809,-0.000160115,0.00373304,-5.82225e-14,1.32734e-13,-0.00132804,0,42.9602,-4.3108,274.921,-1.56753e-09,3.57361e-09,2.40179,878,254.783,0.25,-0.25,0.0735,-0.000188658,0.00207861,1.96735e-13,-0.000574809,-0.000160115,0.00373304,-5.82225e-14,1.32734e-13,-0.00132804,0,42.9602,-4.3108,274.921,-1.56753e-09,3.57361e-09,2.40179,878,254.783,0.25,-0.25,0.0735,-0.000188658,0.00207861,1.96735e-13,-0.000574809,-0.000160115,0.00373304,-5.82225e-14,1.32734e-13,-0.00132804,0,42.9602,-4.3108,274.921,-1.56753e-09,3.57361e-09,2.40179,878,254.783,0.25,-0.25,0.0735,-0.000188658,0.00207861,1.96735e-13,-0.000574809,-0.000160115,0.00373304,-5.82225e-14,1.32734e-13,-0.00132804,0,42.9602,-4.3108,274.921,-1.56753e-09,3.57361e-09,2.40179,878,254.783,0.25,-0.25,0.0735,-0.000188658,0.00207861,1.96735e-13,-0.000574809,-0.000160115,0.00373304,-5.82225e-14,1.32734e-13,-0.00132804,0,42.9602,-4.3108,274.921,-1.56753e-09,3.57361e-09,2.40179,878,254.783,0.25,-0.25,0.0735,-0.000188658,0.00207861,1.96735e-13,-0.000574809,-0.000160115,0.00373304,-5.82225e-14,1.32734e-13,-0.00132804,0,42.9602,-4.3108,274.921,-1.56753e-09,3.57361e-09,2.40179,878,0,0,0,0,0,0,0,0,0,0,0,0,0,0,0,0,0,0,0,0,0,1
stats,23,1,0.24,265.861,0.25,-0.25,0.0735,-0.000196861,0.00216898,2.05355e-13,-0.000599801,-0.000167077,0.00389534,-6.07527e-14,1.38505e-13,-0.00138578,0,44.8281,-4.49822,286.874,-1.63565e-09,3.72898e-09,2.50621,878,265.861,0.25,-0.25,0.0735,-0.000196861,0.00216898,2.05355e-13,-0.000599801,-0.000167077,0.00389534,-6.07527e-14,1.38505e-13,-0.00138578,0,44.8281,-4.49822,286.874,-1.63565e-09,3.72898e-09,2.50621,878,265.861,0.25,-0.25,0.0735,-0.000196861,0.00216898,2.05355e-13,-0.000599801,-0.000167077,0.00389534,-6.07527e-14,1.38505e-13,-0.00138578,0,44.8281,-4.49822,286.874,-1.63565e-09,3.72898e-09,2.50621,878,265.861,0.25,-0.25,0.0735,-0.000196861,0.00216898,2.05355e-13,-0.000599801,-0.000167077,0.00389534,-6.07527e-14,1.38505e-13,-0.00138578,0,44.8281,-4.49822,286.874,-1.63565e-09,3.72898e-09,2.50621,878,265.861,0.25,-0.25,0.0735,-0.000196861,0.00216898,2.05355e-13,-0.000599801,-0.000167077,0.00389534,-6.07527e-14,1.38505e-13,-0.00138578,0,44.8281,-4.49822,286.874,-1.63565e-09,3.72898e-09,2.50621,878,265.861,0.25,-0.25,0.0735,-0.000196861,0.00216898,2.05355e-13,-0.000599801,-0.000167077,0.00389534,-6.07527e-14,1.38505e-13,-0.00138578,0,44.8281,-4.49822,286.874,-1.63565e-09,3.72898e-09,2.50621,878,0,0,0,0,0,0,0,0,0,0,0,0,0,0,0,0,0,0,0,0,0,1
stats,24,1,0.25,276.938,0.25,-0.25,0.0735,-0.000205063,0.00225935,2.13932e-13,-0.000624793,-0.000174038,0.00405765,-6.32822e-14,1.44277e-13,-0.00144352,0,46.6959,-4.68565,298.827,-1.70375e-09,3.88437e-09,2.61064,878,276.938,0.25,-0.25,0.0735,-0.000205063,0.00225935,2.13932e-13,-0.000624793,-0.000174038,0.00405765,-6.32822e-14,1.44277e-13,-0.00144352,0,46.6959,-4.68565,298.827,-1.70375e-09,3.88437e-09,2.61064,878,276.938,0.25,-0.25,0.0735,-0.000205063,0.00225935,2.13932e-13,-0.000624793,-0.000174038,0.00405765,-6.32822e-14,1.44277e-13,-0.00144352,0,46.6959,-4.68565,298.827,-1.70375e-09,3.88437e-09,2.61064,878,276.938,0.25,-0.25,0.0735,-0.000205063,0.00225935,2.13932e-13,-0.000624793,-0.000174038,0.00405765,-6.32822e-14,1.44277e-13,-0.00144352,0,46.6959,-4.68565,298.827,-1.70375e-09,3.88437e-09,2.61064,878,276.938,0.25,-0.25,0.0735,-0.000205063,0.00225935,2.13932e-13,-0.000624793,-0.000174038,0.00405765,-6.32822e-14,1.44277e-13,-0.00144352,0,46.6959,-4.68565,298.827,-1.70375e-09,3.88437e-09,2.61064,878,276.938,0.25,-0.25,0.0735,-0.000205063,0.00225935,2.13932e-13,-0.000624793,-0.000174038,0.00405765,-6.32822e-14,1.44277e-13,-0.00144352,0,46.6959,-4.68565,298.827,-1.70375e-09,3.88437e-09,2.61064,878,0,0,0,0,0,0,0,0,0,0,0,0,0,0,0,0,0,0,0,0,0,1
stats,25,1,0.26,288.016,0.25,-0.25,0.0735,-0.000213266,0.00234973,2.22504e-13,-0.000649784,-0.000181,0.00421995,-6.58124e-14,1.50048e-13,-0.00150126,0,48.5637,-4.87308,310.78,-1.77187e-09,4.03975e-09,2.71506,878,288.016,0.25,-0.25,0.0735,-0.000213266,0.00234973,2.22504e-13,-0.000649784,-0.000181,0.00421995,-6.58124e-14,1.50048e-13,-0.00150126,0,48.5637,-4.87308,310.78,-1.77187e-09,4.03975e-09,2.71506,878,288.016,0.25,-0.25,0.0735,-0.000213266,0.00234973,2.22504e-13,-0.000649784,-0.000181,0.00421995,-6.58124e-14,1.50048e-13,-0.00150126,0,48.5637,-4.87308,310.78,-1.77187e-09,4.03975e-09,2.71506,878,288.016,0.25,-0.25,0.0735,-0.000213266,0.00234973,2.22504e-13,-0.000649784,-0.000181,0.00421995,-6.58124e-14,1.50048e-13,-0.00150126,0,48.5637,-4.87308,310.78,-1.77187e-09,4.03975e-09,2.71506,878,288.016,0.25,-0.25,0.0735,-0.000213266,0.00234973,2.22504e-13,-0.000649784,-0.000181,0.00421995,-6.58124e-14,1.50048e-13,-0.00150126,0,48.5637,-4.87308,310.78,-1.77187e-09,4.03975e-09,2.71506,878,288.016,0.25,-0.25,0.0735,-0.000213266,0.00234973,2.22504e-13,-0.000649784,-0.000181,0.00421995,-6.58124e-14,1.50048e-13,-0.00150126,0,48.5637,-4.87308,310.78,-1.77187e-09,4.03975e-09,2.71506,878,0,0,0,0,0,0,0,0,0,0,0,0,0,0,0,0,0,0,0,0,0,1
stats,26,1,0.27,299.094,0.25,-0.25,0.0735,-0.000221468,0.0024401,2.31125e-13,-0.000674776,-0.000187961,0.00438226,-6.83425e-14,1.55819e-13,-0.001559,0,50.4316,-5.0605,322.733,-1.83999e-09,4.19513e-09,2.81949,878,299.094,0.25,-0.25,0.0735,-0.000221468,0.0024401,2.31125e-13,-0.000674776,-0.000187961,0.00438226,-6.83425e-14,1.55819e-13,-0.001559,0,50.4316,-5.0605,322.733,-1.83999e-09,4.19513e-09,2.81949,878,299.094,0.25,-0.25,0.0735,-0.000221468,0.0024401,2.31125e-13,-0.000674776,-0.000187961,0.00438226,-6.83425e-14,1.55819e-13,-0.001559,0,50.4316,-5.0605,322.733,-1.83999e-09,4.19513e-09,2.81949,878,299.094,0.25,-0.25,0.0735,-0.000221468,0.0024401,2.31125e-13,-0.000674776,-0.000187961,0.00438226,-6.83425e-14,1.55819e-13,-0.001559,0,50.4316,-5.0605,322.733,-1.83999e-09,4.19513e-09,2.81949,878,299.094,0.25,-0.25,0.0735,-0.000221468,0.0024401,2.31125e-13,-0.000674776,-0.000187961,0.00438226,-6.83425e-14,1.55819e-13,-0.001559,0,50.4316,-5.0605,322.733,-1.83999e-09,4.19513e-09,2.81949,878,299.094,0.25,-0.25,0.0735,-0.000221468,0.0024401,2.31125e-13,-0.000674776,-0.000187961,0.00438226,-6.83425e-14,1.55819e-13,-0.001559,0,50.4316,-5.0605,322.733,-1.83999e-09,4.19513e-09,2.81949,878,0,0,0,0,0,0,0,0,0,0,0,0,0,0,0,0,0,0,0,0,0,1
stats,27,1,0.28,310.171,0.25,-0.25,0.0735,-0.000229671,0.00253048,2.39764e-13,-0.000699768,-0.000194923,0.00454457,-7.08734e-14,1.6159e-13,-0.00161674,0,52.2994,-5.24793,334.687,-1.90813e-09,4.3505e-09,2.92391,878,310.171,0.25,-0.25,0.0735,-0.000229671,0.00253048,2.39764e-13,-0.000699768,-0.000194923,0.00454457,-7.08734e-14,1.6159e-13,-0.00161674,0,52.2994,-5.24793,334.687,-1.90813e-09,4.3505e-09,2.92391,878,310.171,0.25,-0.25,0.0735,-0.000229671,0.00253048,2.39764e-13,-0.000699768,-0.000194923,0.00454457,-7.08734e-14,1.6159e-13,-0.00161674,0,52.2994,-5.24793,334.687,-1.90813e-09,4.3505e-09,2.92391,878,310.171,0.25,-0.25,0.0735,-0.000229671,0.00253048,2.39764e-13,-0.000699768,-0.000194923,0.00454457,-7.08734e-14,1.6159e-13,-0.00161674,0,52.2994,-5.24793,334.687,-1.90813e-09,4.3505e-09,2.92391,878,310.171,0.25,-0.25,0.0735,-0.000229671,0.00253048,2.39764e-13,-0.000699768,-0.000194923,0.00454457,-7.08734e-14,1.6159e-13,-0.00161674,0,52.2994,-5.24793,334.687,-1.90813e-09,4.3505e-09,2.92391,878,310.171,0.25,-0.25,0.0735,-0.000229671,0.00253048,2.39764e-13,-0.000699768,-0.000194923,0.00454457,-7.08734e-14,1.6159e-13,-0.00161674,0,52.2994,-5.24793,334.687,-1.90813e-09,4.3505e-09,2.92391,878,0,0,0,0,0,0,0,0,0,0,0,0,0,0,0,0,0,0,0,0,0,1
stats,28,1,0.29,321.249,0.25,-0.25,0.0735,-0.000237873,0.00262085,2.48431e-13,-0.000724759,-0.000201885,0.00470687,-7.34019e-14,1.67362e-13,-0.00167448,0,54.1672,-5.43535,346.64,-1.9762e-09,4.50589e-09,3.02834,878,321.249,0.25,-0.25,0.0735,-0.000237873,0.00262085,2.48431e-13,-0.000724759,-0.000201885,0.00470687,-7.34019e-14,1.67362e-13,-0.00167448,0,54.1672,-5.43535,346.64,-1.9762e-09,4.50589e-09,3.02834,878,321.249,0.25,-0.25,0.0735,-0.000237873,0.00262085,2.48431e-13,-0.000724759,-0.000201885,0.00470687,-7.34019e-14,1.67362e-13,-0.00167448,0,54.1672,-5.43535,346.64,-1.9762e-09,4.50589e-09,3.02834,878,321.249,0.25,-0.25,0.0735,-0.000237873,0.00262085,2.48431e-13,-0.000724759,-0.000201885,0.00470687,-7.34019e-14,1.67362e-13,-0.00167448,0,54.1672,-5.43535,346.64,-1.9762e-09,4.50589e-09,3.02834,878,321.249,0.25,-0.25,0.0735,-0.000237873,0.00262085,2.48431e-13,-0.000724759,-0.000201885,0.00470687,-7.34019e-14,1.67362e-13,-0.00167448,0,54.1672,-5.43535,346.64,-1.9762e-09,4.50589e-09,3.02834,878,321.249,0.25,-0.25,0.0735,-0.000237873,0.00262085,2.48431e-13,-0.000724759,-0.000201885,0.00470687,-7.34019e-14,1.67362e-13,-0.00167448,0,54.1672,-5.43535,346.64,-1.9762e-09,4.50589e-09,3.02834,878,0,0,0,0,0,0,0,0,0,0,0,0,0,0,0,0,0,0,0,0,0,1
stats,29,1,0.3,332.326,0.25,-0.25,0.0735,-0.000246076,0.00271123,2.57025e-13,-0.000749751,-0.000208846,0.00486918,-7.59322e-14,1.73133e-13,-0.00173222,0,56.0351,-5.62278,358.593,-2.04433e-09,4.66127e-09,3.13276,878,332.326,0.25,-0.25,0.0735,-0.000246076,0.00271123,2.57025e-13,-0.000749751,-0.000208846,0.00486918,-7.59322e-14,1.73133e-13,-0.00173222,0,56.0351,-5.62278,358.593,-2.04433e-09,4.66127e-09,3.13276,878,332.326,0.25,-0.25,0.0735,-0.000246076,0.00271123,2.57025e-13,-0.000749751,-0.000208846,0.00486918,-7.59322e-14,1.73133e-13,-0.00173222,0,56.0351,-5.62278,358.593,-2.04433e-09,4.66127e-09,3.13276,878,332.326,0.25,-0.25,0.0735,-0.000246076,0.00271123,2.57025e-13,-0.000749751,-0.000208846,0.00486918,-7.59322e-14,1.73133e-13,-0.00173222,0,56.0351,-5.62278,358.593,-2.04433e-09,4.66127e-09,3.13276,878,332.326,0.25,-0.25,0.0735,-0.000246076,0.00271123,2.57025e-13,-0.000749751,-0.000208846,0.00486918,-7.59322e-14,1.73133e-13,-0.00173222,0,56.0351,-5.62278,358.593,-2.04433e-09,4.66127e-09,3.13276,878,332.326,0.25,-0.25,0.0735,-0.000246076,0.00271123,2.57025e-13,-0.000749751,-0.000208846,0.00486918,-7.59322e-14,1.73133e-13,-0.00173222,0,56.0351,-5.62278,358.593,-2.04433e-09,4.66127e-09,3.13276,878,0,0,0,0,0,0,0,0,0,0,0,0,0,0,0,0,0,0,0,0,0,1
stats,30,1,0.31,343.404,0.25,-0.25,0.0735,-0.000254279,0.0028016,2.65636e-13,-0.000774743,-0.000215808,0.00503148,-7.84614e-14,1.78904e-13,-0.00178996,0,57.9029,-5.81021,370.546,-2.11242e-09,4.81665e-09,3.23719,878,343.404,0.25,-0.25,0.0735,-0.000254279,0.0028016,2.65636e-13,-0.000774743,-0.000215808,0.00503148,-7.84614e-14,1.78904e-13,-0.00178996,0,57.9029,-5.81021,370.546,-2.11242e-09,4.81665e-09,3.23719,878,343.404,0.25,-0.25,0.0735,-0.000254279,0.0028016,2.65636e-13,-0.000774743,-0.000215808,0.00503148,-7.84614e-14,1.78904e-13,-0.00178996,0,57.9029,-5.81021,370.546,-2.11242e-09,4.81665e-09,3.23719,878,343.404,0.25,-0.25,0.0735,-0.000254279,0.0028016,2.65636e-13,-0.000774743,-0.000215808,0.00503148,-7.84614e-14,1.78904e-13,-0.00178996,0,57.9029,-5.81021,370.546,-2.11242e-09,4.81665e-09,3.23719,878,343.404,0.25,-0.25,0.0735,-0.000254279,0.0028016,2.65636e-13,-0.000774743,-0.000215808,0.00503148,-7.84614e-14,1.78904e-13,-0.00178996,0,57.9029,-5.81021,370.546,-2.11242e-09,4.81665e-09,3.23719,878,343.404,0.25,-0.25,0.0735,-0.000254279,0.0028016,2.65636e-13,-0.000774743,-0.000215808,0.00503148,-7.84614e-14,1.78904e-13,-0.00178996,0,57.9029,-5.81021,370.546,-2.11242e-09,4.81665e-09,3.23719,878,0,0,0,0,0,0,0,0,0,0,0,0,0,0,0,0,0,0,0,0,0,1
stats,31,1,0.32,354.481,0.25,-0.25,0.0735,-0.000262481,0.00289197,2.74266e-13,-0.000799735,-0.000222769,0.00519379,-8.09918e-14,1.84675e-13,-0.0018477,0,59.7707,-5.99763,382.499,-2.18055e-09,4.97203e-09,3.34162,878,354.481,0.25,-0.25,0.0735,-0.000262481,0.00289197,2.74266e-13,-0.000799735,-0.000222769,0.00519379,-8.09918e-14,1.84675e-13,-0.0018477,0,59.7707,-5.99763,382.499,-2.18055e-09,4.97203e-09,3.34162,878,354.481,0.25,-0.25,0.0735,-0.000262481,0.00289197,2.74266e-13,-0.000799735,-0.000222769,0.00519379,-8.09918e-14,1.84675e-13,-0.0018477,0,59.7707,-5.99763,382.499,-2.18055e-09,4.97203e-09,3.34162,878,354.481,0.25,-0.25,0.0735,-0.000262481,0.00289197,2.74266e-13,-0.000799735,-0.000222769,0.00519379,-8.09918e-14,1.84675e-13,-0.0018477,0,59.7707,-5.99763,382.499,-2.18055e-09,4.97203e-09,3.34162,878,354.481,0.25,-0.25,0.0735,-0.000262481,0.00289197,2.74266e-13,-0.000799735,-0.000222769,0.00519379,-8.09918e-14,1.84675e-13,-0.0018477,0,59.7707,-5.99763,382.499,-2.18055e-09,4.97203e-09,3.34162,878,354.481,0.25,-0.25,0.0735,-0.000262481,0.00289197,2.74266e-13,-0.000799735,-0.000222769,0.00519379,-8.09918e-14,1.84675e-13,-0.0018477,0,59.7707,-5.99763,382.499,-2.18055e-09,4.97203e-09,3.34162,878,0,0,0,0,0,0,0,0,0,0,0,0,0,0,0,0,0,0,0,0,0,1
stats,32,1,0.33,365.559,0.25,-0.25,0.0735,-0.000270703,0.00298235,-3.59771e-08,-0.000824728,-0.000229734,0.0053561,-1.459e-09,-2.42987e-10,-0.00190545,0,61.6386,-6.18514,394.453,-3.92807e-05,-6.54196e-06,3.44604,878,365.559,0.25,-0.25,0.0735,-0.000270703,0.00298235,-3.59771e-08,-0.000824728,-0.000229734,0.0053561,-1.459e-09,-2.42987e-10,-0.00190545,0,61.6386,-6.18514,394.453,-3.92807e-05,-6.54196e-06,3.44604,878,365.559,0.25,-0.25,0.0735,-0.000270703,0.00298235,-3.59771e-08,-0.000824728,-0.000229734,0.0053561,-1.459e-09,-2.42987e-10,-0.00190545,0,61.6386,-6.18514,394.453,-3.92807e-05,-6.54196e-06,3.44604,878,365.559,0.25,-0.25,0.0735,-0.000270703,0.00298235,-3.59771e-08,-0.000824728,-0.000229734,0.0053561,-1.459e-09,-2.42987e-10,-0.00190545,0,61.6386,-6.18514,394.453,-3.92807e-05,-6.54196e-06,3.44604,878,365.559,0.25,-0.25,0.0735,-0.000270703,0.00298235,-3.59771e-08,-0.000824728,-0.000229734,0.0053561,-1.459e-09,-2.42987e-10,-0.00190545,0,61.6386,-6.18514,394.453,-3.92807e-05,-6.54196e-06,3.44604,878,365.559,0.25,-0.25,0.0735,-0.000270703,0.00298235,-3.59771e-08,-0.000824728,-0.000229734,0.0053561,-1.459e-09,-2.42987e-10,-0.00190545,0,61.6386,-6.18514,394.453,-3.92807e-05,-6.54196e-06,3.44604,878,0,0,0,0,0,0,0,0,0,0,0,0,0,0,0,0,0,0,0,0,0,1
stats,33,1,0.34,376.207,0.25,-0.25,0.0735,-0.000279093,0.00307291,1.82396e-07,-0.000850401,-0.000236253,0.00551974,2.27797e-07,2.51539e-07,-0.00196435,8.33023e-06,63.5971,-6.31563,406.092,0.00922393,-0.00370864,3.68413,878,376.207,0.25,-0.25,0.0735,-0.000279093,0.00307291,1.82396e-07,-0.000850401,-0.000236253,0.00551974,2.27797e-07,2.51539e-07,-0.00196435,8.33023e-06,63.5971,-6.31563,406.092,0.00922393,-0.00370864,3.68413,878,376.207,0.25,-0.25,0.0735,-0.000279093,0.00307291,1.82396e-07,-0.000850401,-0.000236253,0.00551974,2.27797e-07,2.51539e-07,-0.00196435,8.33023e-06,63.5971,-6.31563,406.092,0.00922393,-0.00370864,3.68413,878,376.207,0.25,-0.25,0.0735,-0.000279093,0.00307291,1.82396e-07,-0.000850401,-0.000236253,0.00551974,2.27797e-07,2.51539e-07,-0.00196435,8.33023e-06,63.5971,-6.31563,406.092,0.00922393,-0.00370864,3.68413,878,376.207,0.25,-0.25,0.0735,-0.000279093,0.00307291,1.82396e-07,-0.000850401,-0.000236253,0.00551974,2.27797e-07,2.51539e-07,-0.00196435,8.33023e-06,63.5971,-6.31563,406.092,0.00922393,-0.00370864,3.68413,878,376.207,0.25,-0.25,0.0735,-0.000279093,0.00307291,1.82396e-07,-0.000850401,-0.000236253,0.00551974,2.27797e-07,2.51539e-07,-0.00196435,8.33023e-06,63.5971,-6.31563,406.092,0.00922393,-0.00370864,3.68413,878,0,0,0,0,0,0,0,0,0,0,0,0,0,0,0,0,0,0,0,0,0,1
stats,34,1,0.35,386.236,0.25,-0.25,0.0735,-0.000287769,0.00316422,6.40622e-08,-0.000878394,-0.000241541,0.00568897,-4.00114e-07,3.32886e-07,-0.00202878,3.38746e-05,65.6494,-6.35937,417.183,-0.00642298,0.00322769,3.9825,878,386.236,0.25,-0.25,0.0735,-0.000287769,0.00316422,6.40622e-08,-0.000878394,-0.000241541,0.00568897,-4.00114e-07,3.32886e-07,-0.00202878,3.38746e-05,65.6494,-6.35937,417.183,-0.00642298,0.00322769,3.9825,878,386.236,0.25,-0.25,0.0735,-0.000287769,0.00316422,6.40622e-08,-0.000878394,-0.000241541,0.00568897,-4.00114e-07,3.32886e-07,-0.00202878,3.38746e-05,65.6494,-6.35937,417.183,-0.00642298,0.00322769,3.9825,878,386.236,0.25,-0.25,0.0735,-0.000287769,0.00316422,6.40622e-08,-0.000878394,-0.000241541,0.00568897,-4.00114e-07,3.32886e-07,-0.00202878,3.38746e-05,65.6494,-6.35937,417.183,-0.00642298,0.00322769,3.9825,878,386.236,0.25,-0.25,0.0735,-0.000287769,0.00316422,6.40622e-08,-0.000878394,-0.000241541,0.00568897,-4.00114e-07,3.32886e-07,-0.00202878,3.38746e-05,65.6494,-6.35937,417.183,-0.00642298,0.00322769,3.9825,878,386.236,0.25,-0.25,0.0735,-0.000287769,0.00316422,6.40622e-08,-0.000878394,-0.000241541,0.00568897,-4.00114e-07,3.32886e-07,-0.00202878,3.38746e-05,65.6494,-6.35937,417.183,-0.00642298,0.00322769,3.9825,878,0,0,0,0,0,0,0,0,0,0,0,0,0,0,0,0,0,0,0,0,0,1
stats,35,1,0.36,394.905,0.25,-0.25,0.0735,-0.000296436,0.0032554,1.74399e-07,-0.00090737,-0.000247688,0.00586127,-6.2606e-07,7.69876e-07,-0.00209675,8.49134e-05,68.0617,-6.60398,427.269,-0.00942353,9.23245e-05,4.67065,878,394.905,0.25,-0.25,0.0735,-0.000296436,0.0032554,1.74399e-07,-0.00090737,-0.000247688,0.00586127,-6.2606e-07,7.69876e-07,-0.00209675,8.49134e-05,68.0617,-6.60398,427.269,-0.00942353,9.23245e-05,4.67065,878,394.905,0.25,-0.25,0.0735,-0.000296436,0.0032554,1.74399e-07,-0.00090737,-0.000247688,0.00586127,-6.2606e-07,7.69876e-07,-0.00209675,8.49134e-05,68.0617,-6.60398,427.269,-0.00942353,9.23245e-05,4.67065,878,394.905,0.25,-0.25,0.0735,-0.000296436,0.0032554,1.74399e-07,-0.00090737,-0.000247688,0.00586127,-6.2606e-07,7.69876e-07,-0.00209675,8.49134e-05,68.0617,-6.60398,427.269,-0.00942353,9.23245e-05,4.67065,878,394.905,0.25,-0.25,0.0735,-0.000296436,0.0032554,1.74399e-07,-0.00090737,-0.000247688,0.00586127,-6.2606e-07,7.69876e-07,-0.00209675,8.49134e-05,68.0617,-6.60398,427.269,-0.00942353,9.23245e-05,4.67065,878,394.905,0.25,-0.25,0.0735,-0.000296436,0.0032554,1.74399e-07,-0.00090737,-0.000247688,0.00586127,-6.2606e-07,7.69876e-07,-0.00209675,8.49134e-05,68.0617,-6.60398,427.269,-0.00942353,9.23245e-05,4.67065,878,0,0,0,0,0,0,0,0,0,0,0,0,0,0,0,0,0,0,0,0,0,1
stats,36,1,0.37,403.912,0.25,-0.25,0.0735,-0.000305221,0.00334631,2.97052e-07,-0.000937588,-0.000254453,0.00603789,-5.56611e-07,9.34815e-07,-0.00216869,0.000136354,70.3794,-6.73698,437.523,-0.00728696,0.00247924,5.12893,878,403.912,0.25,-0.25,0.0735,-0.000305221,0.00334631,2.97052e-07,-0.000937588,-0.000254453,0.00603789,-5.56611e-07,9.34815e-07,-0.00216869,0.000136354,70.3794,-6.73698,437.523,-0.00728696,0.00247924,5.12893,878,403.912,0.25,-0.25,0.0735,-0.000305221,0.00334631,2.97052e-07,-0.000937588,-0.000254453,0.00603789,-5.56611e-07,9.34815e-07,-0.00216869,0.000136354,70.3794,-6.73698,437.523,-0.00728696,0.00247924,5.12893,878,403.912,0.25,-0.25,0.0735,-0.000305221,0.00334631,2.97052e-07,-0.000937588,-0.000254453,0.00603789,-5.56611e-07,9.34815e-07,-0.00216869,0.000136354,70.3794,-6.73698,437.523,-0.00728696,0.00247924,5.12893,878,403.912,0.25,-0.25,0.0735,-0.000305221,0.00334631,2.97052e-07,-0.000937588,-0.000254453,0.00603789,-5.56611e-07,9.34815e-07,-0.00216869,0.000136354,70.3794,-6.73698,437.523,-0.00728696,0.00247924,5.12893,878,403.912,0.25,-0.25,0.0735,-0.000305221,0.00334631,2.97052e-07,-0.000937588,-0.000254453,0.00603789,-5.56611e-07,9.34815e-07,-0.00216869,0.000136354,70.3794,-6.73698,437.523,-0.00728696,0.00247924,5.12893,878,0,0,0,0,0,0,0,0,0,0,0,0,0,0,0,0,0,0,0,0,0,1
stats,37,1,0.38,412.963,0.25,-0.25,0.0735,-0.00031399,0.00343717,3.47165e-07,-0.000968465,-0.000261019,0.00621737,-5.73371e-07,1.03719e-06,-0.00224387,0.000191246,72.6814,-6.85391,447.738,-0.00668554,0.00230061,5.46135,878,412.963,0.25,-0.25,0.0735,-0.00031399,0.00343717,3.47165e-07,-0.000968465,-0.000261019,0.00621737,-5.73371e-07,1.03719e-06,-0.00224387,0.000191246,72.6814,-6.85391,447.738,-0.00668554,0.00230061,5.46135,878,412.963,0.25,-0.25,0.0735,-0.00031399,0.00343717,3.47165e-07,-0.000968465,-0.000261019,0.00621737,-5.73371e-07,1.03719e-06,-0.00224387,0.000191246,72.6814,-6.85391,447.738,-0.00668554,0.00230061,5.46135,878,412.963,0.25,-0.25,0.0735,-0.00031399,0.00343717,3.47165e-07,-0.000968465,-0.000261019,0.00621737,-5.73371e-07,1.03719e-06,-0.00224387,0.000191246,72.6814,-6.85391,447.738,-0.00668554,0.00230061,5.46135,878,412.963,0.25,-0.25,0.0735,-0.00031399,0.00343717,3.47165e-07,-0.000968465,-0.000261019,0.00621737,-5.73371e-07,1.03719e-06,-0.00224387,0.000191246,72.6814,-6.85391,447.738,-0.00668554,0.00230061,5.46135,878,412.963,0.25,-0.25,0.0735,-0.00031399,0.00343717,3.47165e-07,-0.000968465,-0.000261019,0.00621737,-5.73371e-07,1.03719e-06,-0.00224387,0.000191246,72.6814,-6.85391,447.738,-0.00668554,0.00230061,5.46135,878,0,0,0,0,0,0,0,0,0,0,0,0,0,0,0,0,0,0,0,0,0,1
stats,38,1,0.39,421.689,0.25,-0.25,0.0735,-0.000322945,0.00352828,5.52448e-07,-0.00100023,-0.000265827,0.00639842,-6.77137e-07,1.15926e-06,-0.0023207,0.000253373,75.0263,-6.91484,457.681,-0.00821931,0.00213369,5.85384,878,421.689,0.25,-0.25,0.0735,-0.000322945,0.00352828,5.52448e-07,-0.00100023,-0.000265827,0.00639842,-6.77137e-07,1.15926e-06,-0.0023207,0.000253373,75.0263,-6.91484,457.681,-0.00821931,0.00213369,5.85384,878,421.689,0.25,-0.25,0.0735,-0.000322945,0.00352828,5.52448e-07,-0.00100023,-0.000265827,0.00639842,-6.77137e-07,1.15926e-06,-0.0023207,0.000253373,75.0263,-6.91484,457.681,-0.00821931,0.00213369,5.85384,878,421.689,0.25,-0.25,0.0735,-0.000322945,0.00352828,5.52448e-07,-0.00100023,-0.000265827,0.00639842,-6.77137e-07,1.15926e-06,-0.0023207,0.000253373,75.0263,-6.91484,457.681,-0.00821931,0.00213369,5.85384,878,421.689,0.25,-0.25,0.0735,-0.000322945,0.00352828,5.52448e-07,-0.00100023,-0.000265827,0.00639842,-6.77137e-07,1.15926e-06,-0.0023207,0.000253373,75.0263,-6.91484,457.681,-0.00821931,0.00213369,5.85384,878,421.689,0.25,-0.25,0.0735,-0.000322945,0.00352828,5.52448e-07,-0.00100023,-0.000265827,0.00639842,-6.77137e-07,1.15926e-06,-0.0023207,0.000253373,75.0263,-6.91484,457.681,-0.00821931,0.00213369,5.85384,878,0,0,0,0,0,0,0,0,0,0,0,0,0,0,0,0,0,0,0,0,0,1
stats,39,1,0.4,430.016,0.25,-0.25,0.0735,-0.000332201,0.00361972,6.69081e-07,-0.00103317,-0.000269566,0.00658196,-7.61745e-07,1.32087e-06,-0.00239972,0.000324984,77.4432,-6.9318,467.306,-0.0088404,0.0023313,6.33888,878,430.016,0.25,-0.25,0.0735,-0.000332201,0.00361972,6.69081e-07,-0.00103317,-0.000269566,0.00658196,-7.61745e-07,1.32087e-06,-0.00239972,0.000324984,77.4432,-6.9318,467.306,-0.0088404,0.0023313,6.33888,878,430.016,0.25,-0.25,0.0735,-0.000332201,0.00361972,6.69081e-07,-0.00103317,-0.000269566,0.00658196,-7.61745e-07,1.32087e-06,-0.00239972,0.000324984,77.4432,-6.9318,467.306,-0.0088404,0.0023313,6.33888,878,430.016,0.25,-0.25,0.0735,-0.000332201,0.00361972,6.69081e-07,-0.00103317,-0.000269566,0.00658196,-7.61745e-07,1.32087e-06,-0.00239972,0.000324984,77.4432,-6.9318,467.306,-0.0088404,0.0023313,6.33888,878,430.016,0.25,-0.25,0.0735,-0.000332201,0.00361972,6.69081e-07,-0.00103317,-0.000269566,0.00658196,-7.61745e-07,1.32087e-06,-0.00239972,0.000324984,77.4432,-6.9318,467.306,-0.0088404,0.0023313,6.33888,878,430.016,0.25,-0.25,0.0735,-0.000332201,0.00361972,6.69081e-07,-0.00103317,-0.000269566,0.00658196,-7.61745e-07,1.32087e-06,-0.00239972,0.000324984,77.4432,-6.9318,467.306,-0.0088404,0.0023313,6.33888,878,0,0,0,0,0,0,0,0,0,0,0,0,0,0,0,0,0,0,0,0,0,1
stats,40,1,0.41,437.786,0.25,-0.25,0.0735,-0.000341739,0.00371148,7.72847e-07,-0.00106751,-0.000271715,0.00676845,-8.82938e-07,1.51835e-06,-0.00248194,0.00040941,79.9475,-6.88704,476.461,-0.00993678,0.00230032,6.9171,878,437.786,0.25,-0.25,0.0735,-0.000341739,0.00371148,7.72847e-07,-0.00106751,-0.000271715,0.00676845,-8.82938e-07,1.51835e-06,-0.00248194,0.00040941,79.9475,-6.88704,476.461,-0.00993678,0.00230032,6.9171,878,437.786,0.25,-0.25,0.0735,-0.000341739,0.00371148,7.72847e-07,-0.00106751,-0.000271715,0.00676845,-8.82938e-07,1.51835e-06,-0.00248194,0.00040941,79.9475,-6.88704,476.461,-0.00993678,0.00230032,6.9171,878,437.786,0.25,-0.25,0.0735,-0.000341739,0.00371148,7.72847e-07,-0.00106751,-0.000271715,0.00676845,-8.82938e-07,1.51835e-06,-0.00248194,0.00040941,79.9475,-6.88704,476.461,-0.00993678,0.00230032,6.9171,878,437.786,0.25,-0.25,0.0735,-0.000341739,0.00371148,7.72847e-07,-0.00106751,-0.000271715,0.00676845,-8.82938e-07,1.51835e-06,-0.00248194,0.00040941,79.9475,-6.88704,476.461,-0.00993678,0.00230032,6.9171,878,437.786,0.25,-0.25,0.0735,-0.000341739,0.00371148,7.72847e-07,-0.00106751,-0.000271715,0.00676845,-8.82938e-07,1.51835e-06,-0.00248194,0.00040941,79.9475,-6.88704,476.461,-0.00993678,0.00230032,6.9171,878,0,0,0,0,0,0,0,0,0,0,0,0,0,0,0,0,0,0,0,0,0,1
stats,41,1,0.42,444.791,0.25,-0.25,0.0735,-0.0003517,0.0038038,8.30239e-07,-0.00110382,-0.000271899,0.00695911,-1.05639e-06,1.80291e-06,-0.00256834,0.000511439,82.5803,-6.76148,484.989,-0.0117154,0.00306669,7.64679,878,444.791,0.25,-0.25,0.0735,-0.0003517,0.0038038,8.30239e-07,-0.00110382,-0.000271899,0.00695911,-1.05639e-06,1.80291e-06,-0.00256834,0.000511439,82.5803,-6.76148,484.989,-0.0117154,0.00306669,7.64679,878,444.791,0.25,-0.25,0.0735,-0.0003517,0.0038038,8.30239e-07,-0.00110382,-0.000271899,0.00695911,-1.05639e-06,1.80291e-06,-0.00256834,0.000511439,82.5803,-6.76148,484.989,-0.0117154,0.00306669,7.64679,878,444.791,0.25,-0.25,0.0735,-0.0003517,0.0038038,8.30239e-07,-0.00110382,-0.000271899,0.00695911,-1.05639e-06,1.80291e-06,-0.00256834,0.000511439,82.5803,-6.76148,484.989,-0.0117154,0.00306669,7.64679,878,444.791,0.25,-0.25,0.0735,-0.0003517,0.0038038,8.30239e-07,-0.00110382,-0.000271899,0.00695911,-1.05639e-06,1.80291e-06,-0.00256834,0.000511439,82.5803,-6.76148,484.989,-0.0117154,0.00306669,7.64679,878,444.791,0.25,-0.25,0.0735,-0.0003517,0.0038038,8.30239e-07,-0.00110382,-0.000271899,0.00695911,-1.05639e-06,1.80291e-06,-0.00256834,0.000511439,82.5803,-6.76148,484.989,-0.0117154,0.00306669,7.64679,878,0,0,0,0,0,0,0,0,0,0,0,0,0,0,0,0,0,0,0,0,0,1
stats,42,1,0.43,450.831,0.25,-0.25,0.0735,-0.000362137,0.00389663,7.70663e-07,-0.0011425,-0.000270852,0.00715602,-1.30206e-06,2.13299e-06,-0.00266112,0.000637033,85.4063,-6.56928,492.719,-0.0146831,0.00363783,8.5434,878,450.831,0.25,-0.25,0.0735,-0.000362137,0.00389663,7.70663e-07,-0.0011425,-0.000270852,0.00715602,-1.30206e-06,2.13299e-06,-0.00266112,0.000637033,85.4063,-6.56928,492.719,-0.0146831,0.00363783,8.5434,878,450.831,0.25,-0.25,0.0735,-0.000362137,0.00389663,7.70663e-07,-0.0011425,-0.000270852,0.00715602,-1.30206e-06,2.13299e-06,-0.00266112,0.000637033,85.4063,-6.56928,492.719,-0.0146831,0.00363783,8.5434,878,450.831,0.25,-0.25,0.0735,-0.000362137,0.00389663,7.70663e-07,-0.0011425,-0.000270852,0.00715602,-1.30206e-06,2.13299e-06,-0.00266112,0.000637033,85.4063,-6.56928,492.719,-0.0146831,0.00363783,8.5434,878,450.831,0.25,-0.25,0.0735,-0.000362137,0.00389663,7.70663e-07,-0.0011425,-0.000270852,0.00715602,-1.30206e-06,2.13299e-06,-0.00266112,0.000637033,85.4063,-6.56928,492.719,-0.0146831,0.00363783,8.5434,878,450.831,0.25,-0.25,0.0735,-0.000362137,0.00389663,7.70663e-07,-0.0011425,-0.000270852,0.00715602,-1.30206e-06,2.13299e-06,-0.00266112,0.000637033,85.4063,-6.56928,492.719,-0.0146831,0.00363783,8.5434,878,0,0,0,0,0,0,0,0,0,0,0,0,0,0,0,0,0,0,0,0,0,1
stats,43,1,0.44,455.875,0.25,-0.25,0.0735,-0.00037311,0.00399004,6.77165e-07,-0.00118408,-0.000268542,0.00736054,-1.61973e-06,2.44322e-06,-0.00276181,0.000788698,88.4137,-6.33011,499.587,-0.0192293,0.00426369,9.56388,878,455.875,0.25,-0.25,0.0735,-0.00037311,0.00399004,6.77165e-07,-0.00118408,-0.000268542,0.00736054,-1.61973e-06,2.44322e-06,-0.00276181,0.000788698,88.4137,-6.33011,499.587,-0.0192293,0.00426369,9.56388,878,455.875,0.25,-0.25,0.0735,-0.00037311,0.00399004,6.77165e-07,-0.00118408,-0.000268542,0.00736054,-1.61973e-06,2.44322e-06,-0.00276181,0.000788698,88.4137,-6.33011,499.587,-0.0192293,0.00426369,9.56388,878,455.875,0.25,-0.25,0.0735,-0.00037311,0.00399004,6.77165e-07,-0.00118408,-0.000268542,0.00736054,-1.61973e-06,2.44322e-06,-0.00276181,0.000788698,88.4137,-6.33011,499.587,-0.0192293,0.00426369,9.56388,878,455.875,0.25,-0.25,0.0735,-0.00037311,0.00399004,6.77165e-07,-0.00118408,-0.000268542,0.00736054,-1.61973e-06,2.44322e-06,-0.00276181,0.000788698,88.4137,-6.33011,499.587,-0.0192293,0.00426369,9.56388,878,455.875,0.25,-0.25,0.0735,-0.00037311,0.00399004,6.77165e-07,-0.00118408,-0.000268542,0.00736054,-1.61973e-06,2.44322e-06,-0.00276181,0.000788698,88.4137,-6.33011,499.587,-0.0192293,0.00426369,9.56388,878,0,0,0,0,0,0,0,0,0,0,0,0,0,0,0,0,0,0,0,0,0,1
stats,44,1,0.45,460.677,0.25,-0.25,0.0735,-0.000384269,0.00408385,5.94616e-07,-0.00122971,-0.000265633,0.00757375,-1.58225e-06,3.01631e-06,-0.00287118,0.000956655,91.3192,-6.14807,506.044,-0.0141685,0.0121517,10.3889,878,460.677,0.25,-0.25,0.0735,-0.000384269,0.00408385,5.94616e-07,-0.00122971,-0.000265633,0.00757375,-1.58225e-06,3.01631e-06,-0.00287118,0.000956655,91.3192,-6.14807,506.044,-0.0141685,0.0121517,10.3889,878,460.677,0.25,-0.25,0.0735,-0.000384269,0.00408385,5.94616e-07,-0.00122971,-0.000265633,0.00757375,-1.58225e-06,3.01631e-06,-0.00287118,0.000956655,91.3192,-6.14807,506.044,-0.0141685,0.0121517,10.3889,878,460.677,0.25,-0.25,0.0735,-0.000384269,0.00408385,5.94616e-07,-0.00122971,-0.000265633,0.00757375,-1.58225e-06,3.01631e-06,-0.00287118,0.000956655,91.3192,-6.14807,506.044,-0.0141685,0.0121517,10.3889,878,460.677,0.25,-0.25,0.0735,-0.000384269,0.00408385,5.94616e-07,-0.00122971,-0.000265633,0.00757375,-1.58225e-06,3.01631e-06,-0.00287118,0.000956655,91.3192,-6.14807,506.044,-0.0141685,0.0121517,10.3889,878,460.677,0.25,-0.25,0.0735,-0.000384269,0.00408385,5.94616e-07,-0.00122971,-0.000265633,0.00757375,-1.58225e-06,3.01631e-06,-0.00287118,0.000956655,91.3192,-6.14807,506.044,-0.0141685,0.0121517,10.3889,878,0,0,0,0,0,0,0,0,0,0,0,0,0,0,0,0,0,0,0,0,0,1
stats,45,1,0.46,465.237,0.25,-0.25,0.0735,-0.000395677,0.00417751,7.23586e-07,-0.00127848,-0.000263131,0.00779448,-1.65567e-06,3.25962e-06,-0.00298795,0.00113913,94.1777,-6.0405,512.15,-0.014063,0.010513,11.0831,878,465.237,0.25,-0.25,0.0735,-0.000395677,0.00417751,7.23586e-07,-0.00127848,-0.000263131,0.00779448,-1.65567e-06,3.25962e-06,-0.00298795,0.00113913,94.1777,-6.0405,512.15,-0.014063,0.010513,11.0831,878,465.237,0.25,-0.25,0.0735,-0.000395677,0.00417751,7.23586e-07,-0.00127848,-0.000263131,0.00779448,-1.65567e-06,3.25962e-06,-0.00298795,0.00113913,94.1777,-6.0405,512.15,-0.014063,0.010513,11.0831,878,465.237,0.25,-0.25,0.0735,-0.000395677,0.00417751,7.23586e-07,-0.00127848,-0.000263131,0.00779448,-1.65567e-06,3.25962e-06,-0.00298795,0.00113913,94.1777,-6.0405,512.15,-0.014063,0.010513,11.0831,878,465.237,0.25,-0.25,0.0735,-0.000395677,0.00417751,7.23586e-07,-0.00127848,-0.000263131,0.00779448,-1.65567e-06,3.25962e-06,-0.00298795,0.00113913,94.1777,-6.0405,512.15,-0.014063,0.010513,11.0831,878,465.237,0.25,-0.25,0.0735,-0.000395677,0.00417751,7.23586e-07,-0.00127848,-0.000263131,0.00779448,-1.65567e-06,3.25962e-06,-0.00298795,0.00113913,94.1777,-6.0405,512.15,-0.014063,0.010513,11.0831,878,0,0,0,0,0,0,0,0,0,0,0,0,0,0,0,0,0,0,0,0,0,1
stats,46,1,0.47,469.484,0.25,-0.25,0.0735,-0.000407459,0.00427096,7.9952e-07,-0.00132904,-0.000260618,0.00802053,-1.54724e-06,3.42744e-06,-0.00311026,0.0013341,97.0728,-5.93007,517.916,-0.00970294,0.00966531,11.7281,878,469.484,0.25,-0.25,0.0735,-0.000407459,0.00427096,7.9952e-07,-0.00132904,-0.000260618,0.00802053,-1.54724e-06,3.42744e-06,-0.00311026,0.0013341,97.0728,-5.93007,517.916,-0.00970294,0.00966531,11.7281,878,469.484,0.25,-0.25,0.0735,-0.000407459,0.00427096,7.9952e-07,-0.00132904,-0.000260618,0.00802053,-1.54724e-06,3.42744e-06,-0.00311026,0.0013341,97.0728,-5.93007,517.916,-0.00970294,0.00966531,11.7281,878,469.484,0.25,-0.25,0.0735,-0.000407459,0.00427096,7.9952e-07,-0.00132904,-0.000260618,0.00802053,-1.54724e-06,3.42744e-06,-0.00311026,0.0013341,97.0728,-5.93007,517.916,-0.00970294,0.00966531,11.7281,878,469.484,0.25,-0.25,0.0735,-0.000407459,0.00427096,7.9952e-07,-0.00132904,-0.000260618,0.00802053,-1.54724e-06,3.42744e-06,-0.00311026,0.0013341,97.0728,-5.93007,517.916,-0.00970294,0.00966531,11.7281,878,469.484,0.25,-0.25,0.0735,-0.000407459,0.00427096,7.9952e-07,-0.00132904,-0.000260618,0.00802053,-1.54724e-06,3.42744e-06,-0.00311026,0.0013341,97.0728,-5.93007,517.916,-0.00970294,0.00966531,11.7281,878,0,0,0,0,0,0,0,0,0,0,0,0,0,0,0,0,0,0,0,0,0,1
stats,47,1,0.48,472.96,0.25,-0.25,0.0735,-0.000419489,0.00436436,9.09189e-07,-0.00138199,-0.000258055,0.00825282,-1.37149e-06,3.81757e-06,-0.00323892,0.00154972,100.026,-5.69539,523.025,0.000930176,0.000316393,12.5322,878,472.96,0.25,-0.25,0.0735,-0.000419489,0.00436436,9.09189e-07,-0.00138199,-0.000258055,0.00825282,-1.37149e-06,3.81757e-06,-0.00323892,0.00154972,100.026,-5.69539,523.025,0.000930176,0.000316393,12.5322,878,472.96,0.25,-0.25,0.0735,-0.000419489,0.00436436,9.09189e-07,-0.00138199,-0.000258055,0.00825282,-1.37149e-06,3.81757e-06,-0.00323892,0.00154972,100.026,-5.69539,523.025,0.000930176,0.000316393,12.5322,878,472.96,0.25,-0.25,0.0735,-0.000419489,0.00436436,9.09189e-07,-0.00138199,-0.000258055,0.00825282,-1.37149e-06,3.81757e-06,-0.00323892,0.00154972,100.026,-5.69539,523.025,0.000930176,0.000316393,12.5322,878,472.96,0.25,-0.25,0.0735,-0.000419489,0.00436436,9.09189e-07,-0.00138199,-0.000258055,0.00825282,-1.37149e-06,3.81757e-06,-0.00323892,0.00154972,100.026,-5.69539,523.025,0.000930176,0.000316393,12.5322,878,472.96,0.25,-0.25,0.0735,-0.000419489,0.00436436,9.09189e-07,-0.00138199,-0.000258055,0.00825282,-1.37149e-06,3.81757e-06,-0.00323892,0.00154972,100.026,-5.69539,523.025,0.000930176,0.000316393,12.5322,878,0,0,0,0,0,0,0,0,0,0,0,0,0,0,0,0,0,0,0,0,0,1
stats,48,1,0.49,476.286,0.25,-0.25,0.0735,-0.000432261,0.00445774,5.45484e-07,-0.00143734,-0.000256753,0.00849041,-1.18996e-06,3.83155e-06,-0.00337472,0.00177627,102.825,-5.43125,527.778,0.00601161,-0.000403915,13.1077,878,476.286,0.25,-0.25,0.0735,-0.000432261,0.00445774,5.45484e-07,-0.00143734,-0.000256753,0.00849041,-1.18996e-06,3.83155e-06,-0.00337472,0.00177627,102.825,-5.43125,527.778,0.00601161,-0.000403915,13.1077,878,476.286,0.25,-0.25,0.0735,-0.000432261,0.00445774,5.45484e-07,-0.00143734,-0.000256753,0.00849041,-1.18996e-06,3.83155e-06,-0.00337472,0.00177627,102.825,-5.43125,527.778,0.00601161,-0.000403915,13.1077,878,476.286,0.25,-0.25,0.0735,-0.000432261,0.00445774,5.45484e-07,-0.00143734,-0.000256753,0.00849041,-1.18996e-06,3.83155e-06,-0.00337472,0.00177627,102.825,-5.43125,527.778,0.00601161,-0.000403915,13.1077,878,476.286,0.25,-0.25,0.0735,-0.000432261,0.00445774,5.45484e-07,-0.00143734,-0.000256753,0.00849041,-1.18996e-06,3.83155e-06,-0.00337472,0.00177627,102.825,-5.43125,527.778,0.00601161,-0.000403915,13.1077,878,476.286,0.25,-0.25,0.0735,-0.000432261,0.00445774,5.45484e-07,-0.00143734,-0.000256753,0.00849041,-1.18996e-06,3.83155e-06,-0.00337472,0.00177627,102.825,-5.43125,527.778,0.00601161,-0.000403915,13.1077,878,0,0,0,0,0,0,0,0,0,0,0,0,0,0,0,0,0,0,0,0,0,1
stats,49,1,0.5,480.283,0.25,-0.25,0.0735,-0.000445421,0.00455129,7.46778e-07,-0.00149521,-0.000255667,0.00873256,-9.11476e-07,3.50797e-06,-0.00351413,0.00199901,105.339,-5.24791,532.882,0.0127829,-0.00928802,13.3419,878,480.283,0.25,-0.25,0.0735,-0.000445421,0.00455129,7.46778e-07,-0.00149521,-0.000255667,0.00873256,-9.11476e-07,3.50797e-06,-0.00351413,0.00199901,105.339,-5.24791,532.882,0.0127829,-0.00928802,13.3419,878,480.283,0.25,-0.25,0.0735,-0.000445421,0.00455129,7.46778e-07,-0.00149521,-0.000255667,0.00873256,-9.11476e-07,3.50797e-06,-0.00351413,0.00199901,105.339,-5.24791,532.882,0.0127829,-0.00928802,13.3419,878,480.283,0.25,-0.25,0.0735,-0.000445421,0.00455129,7.46778e-07,-0.00149521,-0.000255667,0.00873256,-9.11476e-07,3.50797e-06,-0.00351413,0.00199901,105.339,-5.24791,532.882,0.0127829,-0.00928802,13.3419,878,480.283,0.25,-0.25,0.0735,-0.000445421,0.00455129,7.46778e-07,-0.00149521,-0.000255667,0.00873256,-9.11476e-07,3.50797e-06,-0.00351413,0.00199901,105.339,-5.24791,532.882,0.0127829,-0.00928802,13.3419,878,480.283,0.25,-0.25,0.0735,-0.000445421,0.00455129,7.46778e-07,-0.00149521,-0.000255667,0.00873256,-9.11476e-07,3.50797e-06,-0.00351413,0.00199901,105.339,-5.24791,532.882,0.0127829,-0.00928802,13.3419,878,0,0,0,0,0,0,0,0,0,0,0,0,0,0,0,0,0,0,0,0,0,1
stats,50,1,0.51,484.452,0.25,-0.25,0.0735,-0.000459239,0.00464522,7.90245e-07,-0.0015575,-0.000252149,0.00898118,-9.2994e-07,3.65476e-06,-0.00365808,0.00222805,107.596,-5.03461,537.966,0.012721,-0.00970761,13.4192,878,484.452,0.25,-0.25,0.0735,-0.000459239,0.00464522,7.90245e-07,-0.0015575,-0.000252149,0.00898118,-9.2994e-07,3.65476e-06,-0.00365808,0.00222805,107.596,-5.03461,537.966,0.012721,-0.00970761,13.4192,878,484.452,0.25,-0.25,0.0735,-0.000459239,0.00464522,7.90245e-07,-0.0015575,-0.000252149,0.00898118,-9.2994e-07,3.65476e-06,-0.00365808,0.00222805,107.596,-5.03461,537.966,0.012721,-0.00970761,13.4192,878,484.452,0.25,-0.25,0.0735,-0.000459239,0.00464522,7.90245e-07,-0.0015575,-0.000252149,0.00898118,-9.2994e-07,3.65476e-06,-0.00365808,0.00222805,107.596,-5.03461,537.966,0.012721,-0.00970761,13.4192,878,484.452,0.25,-0.25,0.0735,-0.000459239,0.00464522,7.90245e-07,-0.0015575,-0.000252149,0.00898118,-9.2994e-07,3.65476e-06,-0.00365808,0.00222805,107.596,-5.03461,537.966,0.012721,-0.00970761,13.4192,878,484.452,0.25,-0.25,0.0735,-0.000459239,0.00464522,7.90245e-07,-0.0015575,-0.000252149,0.00898118,-9.2994e-07,3.65476e-06,-0.00365808,0.00222805,107.596,-5.03461,537.966,0.012721,-0.00970761,13.4192,878,0,0,0,0,0,0,0,0,0,0,0,0,0,0,0,0,0,0,0,0,0,1
stats,51,1,0.52,488.618,0.25,-0.25,0.0735,-0.000473551,0.00473959,8.06907e-07,-0.00162274,-0.000247486,0.009234,-7.85845e-07,3.96211e-06,-0.00380537,0.00246317,109.673,-4.78341,542.933,0.0175911,-0.00486341,13.4237,878,488.618,0.25,-0.25,0.0735,-0.000473551,0.00473959,8.06907e-07,-0.00162274,-0.000247486,0.009234,-7.85845e-07,3.96211e-06,-0.00380537,0.00246317,109.673,-4.78341,542.933,0.0175911,-0.00486341,13.4237,878,488.618,0.25,-0.25,0.0735,-0.000473551,0.00473959,8.06907e-07,-0.00162274,-0.000247486,0.009234,-7.85845e-07,3.96211e-06,-0.00380537,0.00246317,109.673,-4.78341,542.933,0.0175911,-0.00486341,13.4237,878,488.618,0.25,-0.25,0.0735,-0.000473551,0.00473959,8.06907e-07,-0.00162274,-0.000247486,0.009234,-7.85845e-07,3.96211e-06,-0.00380537,0.00246317,109.673,-4.78341,542.933,0.0175911,-0.00486341,13.4237,878,488.618,0.25,-0.25,0.0735,-0.000473551,0.00473959,8.06907e-07,-0.00162274,-0.000247486,0.009234,-7.85845e-07,3.96211e-06,-0.00380537,0.00246317,109.673,-4.78341,542.933,0.0175911,-0.00486341,13.4237,878,488.618,0.25,-0.25,0.0735,-0.000473551,0.00473959,8.06907e-07,-0.00162274,-0.000247486,0.009234,-7.85845e-07,3.96211e-06,-0.00380537,0.00246317,109.673,-4.78341,542.933,0.0175911,-0.00486341,13.4237,878,0,0,0,0,0,0,0,0,0,0,0,0,0,0,0,0,0,0,0,0,0,1
stats,52,1,0.53,492.959,0.25,-0.25,0.0735,-0.000488507,0.00483443,1.07356e-06,-0.0016907,-0.000241796,0.00949083,-6.07894e-07,4.09476e-06,-0.0039563,0.00270153,111.517,-4.49925,547.888,0.0234497,-0.0063885,13.2649,878,492.959,0.25,-0.25,0.0735,-0.000488507,0.00483443,1.07356e-06,-0.0016907,-0.000241796,0.00949083,-6.07894e-07,4.09476e-06,-0.0039563,0.00270153,111.517,-4.49925,547.888,0.0234497,-0.0063885,13.2649,878,492.959,0.25,-0.25,0.0735,-0.000488507,0.00483443,1.07356e-06,-0.0016907,-0.000241796,0.00949083,-6.07894e-07,4.09476e-06,-0.0039563,0.00270153,111.517,-4.49925,547.888,0.0234497,-0.0063885,13.2649,878,492.959,0.25,-0.25,0.0735,-0.000488507,0.00483443,1.07356e-06,-0.0016907,-0.000241796,0.00949083,-6.07894e-07,4.09476e-06,-0.0039563,0.00270153,111.517,-4.49925,547.888,0.0234497,-0.0063885,13.2649,878,492.959,0.25,-0.25,0.0735,-0.000488507,0.00483443,1.07356e-06,-0.0016907,-0.000241796,0.00949083,-6.07894e-07,4.09476e-06,-0.0039563,0.00270153,111.517,-4.49925,547.888,0.0234497,-0.0063885,13.2649,878,492.959,0.25,-0.25,0.0735,-0.000488507,0.00483443,1.07356e-06,-0.0016907,-0.000241796,0.00949083,-6.07894e-07,4.09476e-06,-0.0039563,0.00270153,111.517,-4.49925,547.888,0.0234497,-0.0063885,13.2649,878,0,0,0,0,0,0,0,0,0,0,0,0,0,0,0,0,0,0,0,0,0,1
stats,53,1,0.54,497.441,0.25,-0.25,0.0735,-0.000504135,0.00492965,1.21049e-06,-0.00176234,-0.000235714,0.00975292,-3.72364e-07,4.25966e-06,-0.00411207,0.00294561,113.072,-4.20503,552.757,0.0307794,-0.00839212,12.9108,878,497.441,0.25,-0.25,0.0735,-0.000504135,0.00492965,1.21049e-06,-0.00176234,-0.000235714,0.00975292,-3.72364e-07,4.25966e-06,-0.00411207,0.00294561,113.072,-4.20503,552.757,0.0307794,-0.00839212,12.9108,878,497.441,0.25,-0.25,0.0735,-0.000504135,0.00492965,1.21049e-06,-0.00176234,-0.000235714,0.00975292,-3.72364e-07,4.25966e-06,-0.00411207,0.00294561,113.072,-4.20503,552.757,0.0307794,-0.00839212,12.9108,878,497.441,0.25,-0.25,0.0735,-0.000504135,0.00492965,1.21049e-06,-0.00176234,-0.000235714,0.00975292,-3.72364e-07,4.25966e-06,-0.00411207,0.00294561,113.072,-4.20503,552.757,0.0307794,-0.00839212,12.9108,878,497.441,0.25,-0.25,0.0735,-0.000504135,0.00492965,1.21049e-06,-0.00176234,-0.000235714,0.00975292,-3.72364e-07,4.25966e-06,-0.00411207,0.00294561,113.072,-4.20503,552.757,0.0307794,-0.00839212,12.9108,878,497.441,0.25,-0.25,0.0735,-0.000504135,0.00492965,1.21049e-06,-0.00176234,-0.000235714,0.00975292,-3.72364e-07,4.25966e-06,-0.00411207,0.00294561,113.072,-4.20503,552.757,0.0307794,-0.00839212,12.9108,878,0,0,0,0,0,0,0,0,0,0,0,0,0,0,0,0,0,0,0,0,0,1
stats,54,1,0.55,501.968,0.25,-0.25,0.0735,-0.000520275,0.00502514,1.18042e-06,-0.00183833,-0.000230796,0.0100211,-1.41737e-07,4.46416e-06,-0.00427374,0.00319821,114.301,-3.91985,557.423,0.0381087,-0.0116386,12.3533,878,501.968,0.25,-0.25,0.0735,-0.000520275,0.00502514,1.18042e-06,-0.00183833,-0.000230796,0.0100211,-1.41737e-07,4.46416e-06,-0.00427374,0.00319821,114.301,-3.91985,557.423,0.0381087,-0.0116386,12.3533,878,501.968,0.25,-0.25,0.0735,-0.000520275,0.00502514,1.18042e-06,-0.00183833,-0.000230796,0.0100211,-1.41737e-07,4.46416e-06,-0.00427374,0.00319821,114.301,-3.91985,557.423,0.0381087,-0.0116386,12.3533,878,501.968,0.25,-0.25,0.0735,-0.000520275,0.00502514,1.18042e-06,-0.00183833,-0.000230796,0.0100211,-1.41737e-07,4.46416e-06,-0.00427374,0.00319821,114.301,-3.91985,557.423,0.0381087,-0.0116386,12.3533,878,501.968,0.25,-0.25,0.0735,-0.000520275,0.00502514,1.18042e-06,-0.00183833,-0.000230796,0.0100211,-1.41737e-07,4.46416e-06,-0.00427374,0.00319821,114.301,-3.91985,557.423,0.0381087,-0.0116386,12.3533,878,501.968,0.25,-0.25,0.0735,-0.000520275,0.00502514,1.18042e-06,-0.00183833,-0.000230796,0.0100211,-1.41737e-07,4.46416e-06,-0.00427374,0.00319821,114.301,-3.91985,557.423,0.0381087,-0.0116386,12.3533,878,0,0,0,0,0,0,0,0,0,0,0,0,0,0,0,0,0,0,0,0,0,1
stats,55,1,0.56,506.256,0.25,-0.25,0.0735,-0.000536949,0.00512065,7.70079e-07,-0.00191871,-0.000227367,0.0102973,1.36895e-07,4.74916e-06,-0.00444297,0.0034662,115.323,-3.6237,561.712,0.0470555,-0.0154093,11.7021,878,506.256,0.25,-0.25,0.0735,-0.000536949,0.00512065,7.70079e-07,-0.00191871,-0.000227367,0.0102973,1.36895e-07,4.74916e-06,-0.00444297,0.0034662,115.323,-3.6237,561.712,0.0470555,-0.0154093,11.7021,878,506.256,0.25,-0.25,0.0735,-0.000536949,0.00512065,7.70079e-07,-0.00191871,-0.000227367,0.0102973,1.36895e-07,4.74916e-06,-0.00444297,0.0034662,115.323,-3.6237,561.712,0.0470555,-0.0154093,11.7021,878,506.256,0.25,-0.25,0.0735,-0.000536949,0.00512065,7.70079e-07,-0.00191871,-0.000227367,0.0102973,1.36895e-07,4.74916e-06,-0.00444297,0.0034662,115.323,-3.6237,561.712,0.0470555,-0.0154093,11.7021,878,506.256,0.25,-0.25,0.0735,-0.000536949,0.00512065,7.70079e-07,-0.00191871,-0.000227367,0.0102973,1.36895e-07,4.74916e-06,-0.00444297,0.0034662,115.323,-3.6237,561.712,0.0470555,-0.0154093,11.7021,878,506.256,0.25,-0.25,0.0735,-0.000536949,0.00512065,7.70079e-07,-0.00191871,-0.000227367,0.0102973,1.36895e-07,4.74916e-06,-0.00444297,0.0034662,115.323,-3.6237,561.712,0.0470555,-0.0154093,11.7021,878,0,0,0,0,0,0,0,0,0,0,0,0,0,0,0,0,0,0,0,0,0,1
stats,56,1,0.57,509.949,0.25,-0.25,0.0735,-0.000554458,0.00521625,9.00455e-07,-0.00200315,-0.000225654,0.0105833,4.31765e-07,4.88966e-06,-0.00462165,0.00375717,116.284,-3.30939,565.384,0.0558685,-0.024793,11.065,878,509.949,0.25,-0.25,0.0735,-0.000554458,0.00521625,9.00455e-07,-0.00200315,-0.000225654,0.0105833,4.31765e-07,4.88966e-06,-0.00462165,0.00375717,116.284,-3.30939,565.384,0.0558685,-0.024793,11.065,878,509.949,0.25,-0.25,0.0735,-0.000554458,0.00521625,9.00455e-07,-0.00200315,-0.000225654,0.0105833,4.31765e-07,4.88966e-06,-0.00462165,0.00375717,116.284,-3.30939,565.384,0.0558685,-0.024793,11.065,878,509.949,0.25,-0.25,0.0735,-0.000554458,0.00521625,9.00455e-07,-0.00200315,-0.000225654,0.0105833,4.31765e-07,4.88966e-06,-0.00462165,0.00375717,116.284,-3.30939,565.384,0.0558685,-0.024793,11.065,878,509.949,0.25,-0.25,0.0735,-0.000554458,0.00521625,9.00455e-07,-0.00200315,-0.000225654,0.0105833,4.31765e-07,4.88966e-06,-0.00462165,0.00375717,116.284,-3.30939,565.384,0.0558685,-0.024793,11.065,878,509.949,0.25,-0.25,0.0735,-0.000554458,0.00521625,9.00455e-07,-0.00200315,-0.000225654,0.0105833,4.31765e-07,4.88966e-06,-0.00462165,0.00375717,116.284,-3.30939,565.384,0.0558685,-0.024793,11.065,878,0,0,0,0,0,0,0,0,0,0,0,0,0,0,0,0,0,0,0,0,0,1
stats,57,1,0.58,512.967,0.25,-0.25,0.0735,-0.000572782,0.00531194,1.07243e-06,-0.00209182,-0.000225968,0.0108799,2.07492e-07,4.78626e-06,-0.00481121,0.00407393,117.194,-2.99626,568.344,0.0496332,-0.0393123,10.4194,878,512.967,0.25,-0.25,0.0735,-0.000572782,0.00531194,1.07243e-06,-0.00209182,-0.000225968,0.0108799,2.07492e-07,4.78626e-06,-0.00481121,0.00407393,117.194,-2.99626,568.344,0.0496332,-0.0393123,10.4194,878,512.967,0.25,-0.25,0.0735,-0.000572782,0.00531194,1.07243e-06,-0.00209182,-0.000225968,0.0108799,2.07492e-07,4.78626e-06,-0.00481121,0.00407393,117.194,-2.99626,568.344,0.0496332,-0.0393123,10.4194,878,512.967,0.25,-0.25,0.0735,-0.000572782,0.00531194,1.07243e-06,-0.00209182,-0.000225968,0.0108799,2.07492e-07,4.78626e-06,-0.00481121,0.00407393,117.194,-2.99626,568.344,0.0496332,-0.0393123,10.4194,878,512.967,0.25,-0.25,0.0735,-0.000572782,0.00531194,1.07243e-06,-0.00209182,-0.000225968,0.0108799,2.07492e-07,4.78626e-06,-0.00481121,0.00407393,117.194,-2.99626,568.344,0.0496332,-0.0393123,10.4194,878,512.967,0.25,-0.25,0.0735,-0.000572782,0.00531194,1.07243e-06,-0.00209182,-0.000225968,0.0108799,2.07492e-07,4.78626e-06,-0.00481121,0.00407393,117.194,-2.99626,568.344,0.0496332,-0.0393123,10.4194,878,0,0,0,0,0,0,0,0,0,0,0,0,0,0,0,0,0,0,0,0,0,1
stats,58,1,0.59,515.786,0.25,-0.25,0.0735,-0.000591955,0.00540768,1.42447e-06,-0.00218561,-0.000229394,0.0111894,5.7911e-07,5.5001e-06,-0.00501317,0.00441202,117.928,-2.75718,570.889,0.0567227,-0.0254507,9.54853,878,515.786,0.25,-0.25,0.0735,-0.000591955,0.00540768,1.42447e-06,-0.00218561,-0.000229394,0.0111894,5.7911e-07,5.5001e-06,-0.00501317,0.00441202,117.928,-2.75718,570.889,0.0567227,-0.0254507,9.54853,878,515.786,0.25,-0.25,0.0735,-0.000591955,0.00540768,1.42447e-06,-0.00218561,-0.000229394,0.0111894,5.7911e-07,5.5001e-06,-0.00501317,0.00441202,117.928,-2.75718,570.889,0.0567227,-0.0254507,9.54853,878,515.786,0.25,-0.25,0.0735,-0.000591955,0.00540768,1.42447e-06,-0.00218561,-0.000229394,0.0111894,5.7911e-07,5.5001e-06,-0.00501317,0.00441202,117.928,-2.75718,570.889,0.0567227,-0.0254507,9.54853,878,515.786,0.25,-0.25,0.0735,-0.000591955,0.00540768,1.42447e-06,-0.00218561,-0.000229394,0.0111894,5.7911e-07,5.5001e-06,-0.00501317,0.00441202,117.928,-2.75718,570.889,0.0567227,-0.0254507,9.54853,878,515.786,0.25,-0.25,0.0735,-0.000591955,0.00540768,1.42447e-06,-0.00218561,-0.000229394,0.0111894,5.7911e-07,5.5001e-06,-0.00501317,0.00441202,117.928,-2.75718,570.889,0.0567227,-0.0254507,9.54853,878,0,0,0,0,0,0,0,0,0,0,0,0,0,0,0,0,0,0,0,0,0,1
stats,59,1,0.6,519.046,0.25,-0.25,0.0735,-0.000611844,0.00550335,1.39637e-06,-0.00228536,-0.000235398,0.0115135,7.2567e-07,5.67629e-06,-0.00522737,0.00476318,118.351,-2.62732,573.506,0.0568005,-0.0242206,8.26986,878,519.046,0.25,-0.25,0.0735,-0.000611844,0.00550335,1.39637e-06,-0.00228536,-0.000235398,0.0115135,7.2567e-07,5.67629e-06,-0.00522737,0.00476318,118.351,-2.62732,573.506,0.0568005,-0.0242206,8.26986,878,519.046,0.25,-0.25,0.0735,-0.000611844,0.00550335,1.39637e-06,-0.00228536,-0.000235398,0.0115135,7.2567e-07,5.67629e-06,-0.00522737,0.00476318,118.351,-2.62732,573.506,0.0568005,-0.0242206,8.26986,878,519.046,0.25,-0.25,0.0735,-0.000611844,0.00550335,1.39637e-06,-0.00228536,-0.000235398,0.0115135,7.2567e-07,5.67629e-06,-0.00522737,0.00476318,118.351,-2.62732,573.506,0.0568005,-0.0242206,8.26986,878,519.046,0.25,-0.25,0.0735,-0.000611844,0.00550335,1.39637e-06,-0.00228536,-0.000235398,0.0115135,7.2567e-07,5.67629e-06,-0.00522737,0.00476318,118.351,-2.62732,573.506,0.0568005,-0.0242206,8.26986,878,519.046,0.25,-0.25,0.0735,-0.000611844,0.00550335,1.39637e-06,-0.00228536,-0.000235398,0.0115135,7.2567e-07,5.67629e-06,-0.00522737,0.00476318,118.351,-2.62732,573.506,0.0568005,-0.0242206,8.26986,878,0,0,0,0,0,0,0,0,0,0,0,0,0,0,0,0,0,0,0,0,0,1
stats,60,1,0.61,520.948,0.25,-0.25,0.0735,-0.000632206,0.00559959,1.02718e-06,-0.00238858,-0.000232215,0.011841,1.42404e-06,6.52357e-06,-0.00544514,0.00514052,118.881,-2.21905,575.025,0.0762685,-0.0102859,7.36236,878,520.948,0.25,-0.25,0.0735,-0.000632206,0.00559959,1.02718e-06,-0.00238858,-0.000232215,0.011841,1.42404e-06,6.52357e-06,-0.00544514,0.00514052,118.881,-2.21905,575.025,0.0762685,-0.0102859,7.36236,878,520.948,0.25,-0.25,0.0735,-0.000632206,0.00559959,1.02718e-06,-0.00238858,-0.000232215,0.011841,1.42404e-06,6.52357e-06,-0.00544514,0.00514052,118.881,-2.21905,575.025,0.0762685,-0.0102859,7.36236,878,520.948,0.25,-0.25,0.0735,-0.000632206,0.00559959,1.02718e-06,-0.00238858,-0.000232215,0.011841,1.42404e-06,6.52357e-06,-0.00544514,0.00514052,118.881,-2.21905,575.025,0.0762685,-0.0102859,7.36236,878,520.948,0.25,-0.25,0.0735,-0.000632206,0.00559959,1.02718e-06,-0.00238858,-0.000232215,0.011841,1.42404e-06,6.52357e-06,-0.00544514,0.00514052,118.881,-2.21905,575.025,0.0762685,-0.0102859,7.36236,878,520.948,0.25,-0.25,0.0735,-0.000632206,0.00559959,1.02718e-06,-0.00238858,-0.000232215,0.011841,1.42404e-06,6.52357e-06,-0.00544514,0.00514052,118.881,-2.21905,575.025,0.0762685,-0.0102859,7.36236,878,0,0,0,0,0,0,0,0,0,0,0,0,0,0,0,0,0,0,0,0,0,1
stats,61,1,0.62,524.251,0.25,-0.25,0.0735,-0.000653371,0.00569517,-1.93615e-07,-0.00249921,-0.000238124,0.0121892,2.11811e-06,7.16192e-06,-0.00567815,0.00552337,118.93,-2.1344,577.36,0.0912115,-0.00151122,5.78957,878,524.251,0.25,-0.25,0.0735,-0.000653371,0.00569517,-1.93615e-07,-0.00249921,-0.000238124,0.0121892,2.11811e-06,7.16192e-06,-0.00567815,0.00552337,118.93,-2.1344,577.36,0.0912115,-0.00151122,5.78957,878,524.251,0.25,-0.25,0.0735,-0.000653371,0.00569517,-1.93615e-07,-0.00249921,-0.000238124,0.0121892,2.11811e-06,7.16192e-06,-0.00567815,0.00552337,118.93,-2.1344,577.36,0.0912115,-0.00151122,5.78957,878,524.251,0.25,-0.25,0.0735,-0.000653371,0.00569517,-1.93615e-07,-0.00249921,-0.000238124,0.0121892,2.11811e-06,7.16192e-06,-0.00567815,0.00552337,118.93,-2.1344,577.36,0.0912115,-0.00151122,5.78957,878,524.251,0.25,-0.25,0.0735,-0.000653371,0.00569517,-1.93615e-07,-0.00249921,-0.000238124,0.0121892,2.11811e-06,7.16192e-06,-0.00567815,0.00552337,118.93,-2.1344,577.36,0.0912115,-0.00151122,5.78957,878,524.251,0.25,-0.25,0.0735,-0.000653371,0.00569517,-1.93615e-07,-0.00249921,-0.000238124,0.0121892,2.11811e-06,7.16192e-06,-0.00567815,0.00552337,118.93,-2.1344,577.36,0.0912115,-0.00151122,5.78957,878,0,0,0,0,0,0,0,0,0,0,0,0,0,0,0,0,0,0,0,0,0,1
stats,62,1,0.63,527.582,0.25,-0.25,0.0735,-0.000675062,0.00579036,-3.45629e-07,-0.00261325,-0.000246051,0.0125463,2.38219e-06,7.34311e-06,-0.00591738,0.00591703,118.899,-2.11271,579.671,0.0920811,-0.00387445,4.18142,878,527.582,0.25,-0.25,0.0735,-0.000675062,0.00579036,-3.45629e-07,-0.00261325,-0.000246051,0.0125463,2.38219e-06,7.34311e-06,-0.00591738,0.00591703,118.899,-2.11271,579.671,0.0920811,-0.00387445,4.18142,878,527.582,0.25,-0.25,0.0735,-0.000675062,0.00579036,-3.45629e-07,-0.00261325,-0.000246051,0.0125463,2.38219e-06,7.34311e-06,-0.00591738,0.00591703,118.899,-2.11271,579.671,0.0920811,-0.00387445,4.18142,878,527.582,0.25,-0.25,0.0735,-0.000675062,0.00579036,-3.45629e-07,-0.00261325,-0.000246051,0.0125463,2.38219e-06,7.34311e-06,-0.00591738,0.00591703,118.899,-2.11271,579.671,0.0920811,-0.00387445,4.18142,878,527.582,0.25,-0.25,0.0735,-0.000675062,0.00579036,-3.45629e-07,-0.00261325,-0.000246051,0.0125463,2.38219e-06,7.34311e-06,-0.00591738,0.00591703,118.899,-2.11271,579.671,0.0920811,-0.00387445,4.18142,878,527.582,0.25,-0.25,0.0735,-0.000675062,0.00579036,-3.45629e-07,-0.00261325,-0.000246051,0.0125463,2.38219e-06,7.34311e-06,-0.00591738,0.00591703,118.899,-2.11271,579.671,0.0920811,-0.00387445,4.18142,878,0,0,0,0,0,0,0,0,0,0,0,0,0,0,0,0,0,0,0,0,0,1
stats,63,1,0.64,530.856,0.25,-0.25,0.0735,-0.000697417,0.00588544,-9.13135e-07,-0.00273004,-0.000254381,0.0129103,3.04219e-06,8.22305e-06,-0.006162,0.0063206,118.795,-2.10304,581.873,0.104242,0.0117676,2.53536,878,530.856,0.25,-0.25,0.0735,-0.000697417,0.00588544,-9.13135e-07,-0.00273004,-0.000254381,0.0129103,3.04219e-06,8.22305e-06,-0.006162,0.0063206,118.795,-2.10304,581.873,0.104242,0.0117676,2.53536,878,530.856,0.25,-0.25,0.0735,-0.000697417,0.00588544,-9.13135e-07,-0.00273004,-0.000254381,0.0129103,3.04219e-06,8.22305e-06,-0.006162,0.0063206,118.795,-2.10304,581.873,0.104242,0.0117676,2.53536,878,530.856,0.25,-0.25,0.0735,-0.000697417,0.00588544,-9.13135e-07,-0.00273004,-0.000254381,0.0129103,3.04219e-06,8.22305e-06,-0.006162,0.0063206,118.795,-2.10304,581.873,0.104242,0.0117676,2.53536,878,530.856,0.25,-0.25,0.0735,-0.000697417,0.00588544,-9.13135e-07,-0.00273004,-0.000254381,0.0129103,3.04219e-06,8.22305e-06,-0.006162,0.0063206,118.795,-2.10304,581.873,0.104242,0.0117676,2.53536,878,530.856,0.25,-0.25,0.0735,-0.000697417,0.00588544,-9.13135e-07,-0.00273004,-0.000254381,0.0129103,3.04219e-06,8.22305e-06,-0.006162,0.0063206,118.795,-2.10304,581.873,0.104242,0.0117676,2.53536,878,0,0,0,0,0,0,0,0,0,0,0,0,0,0,0,0,0,0,0,0,0,1
stats,64,1,0.65,535.256,0.25,-0.25,0.0735,-0.000720184,0.00598018,3.73479e-07,-0.00284981,-0.000261318,0.0132843,8.15241e-07,9.28127e-06,-0.00642005,0.00672288,118.2,-2.00145,584.412,0.0669124,0.0267409,-0.0792885,878,535.256,0.25,-0.25,0.0735,-0.000720184,0.00598018,3.73479e-07,-0.00284981,-0.000261318,0.0132843,8.15241e-07,9.28127e-06,-0.00642005,0.00672288,118.2,-2.00145,584.412,0.0669124,0.0267409,-0.0792885,878,535.256,0.25,-0.25,0.0735,-0.000720184,0.00598018,3.73479e-07,-0.00284981,-0.000261318,0.0132843,8.15241e-07,9.28127e-06,-0.00642005,0.00672288,118.2,-2.00145,584.412,0.0669124,0.0267409,-0.0792885,878,535.256,0.25,-0.25,0.0735,-0.000720184,0.00598018,3.73479e-07,-0.00284981,-0.000261318,0.0132843,8.15241e-07,9.28127e-06,-0.00642005,0.00672288,118.2,-2.00145,584.412,0.0669124,0.0267409,-0.0792885,878,535.256,0.25,-0.25,0.0735,-0.000720184,0.00598018,3.73479e-07,-0.00284981,-0.000261318,0.0132843,8.15241e-07,9.28127e-06,-0.00642005,0.00672288,118.2,-2.00145,584.412,0.0669124,0.0267409,-0.0792885,878,535.256,0.25,-0.25,0.0735,-0.000720184,0.00598018,3.73479e-07,-0.00284981,-0.000261318,0.0132843,8.15241e-07,9.28127e-06,-0.00642005,0.00672288,118.2,-2.00145,584.412,0.0669124,0.0267409,-0.0792885,878,0,0,0,0,0,0,0,0,0,0,0,0,0,0,0,0,0,0,0,0,0,1
stats,65,1,0.66,538.039,0.25,-0.25,0.0735,-0.000743909,0.0060754,-3.78414e-07,-0.0029703,-0.000267039,0.0136565,2.89286e-06,9.13701e-06,-0.00667095,0.00714462,118.055,-1.95065,586.193,0.100728,0.013356,-1.58472,878,538.039,0.25,-0.25,0.0735,-0.000743909,0.0060754,-3.78414e-07,-0.0029703,-0.000267039,0.0136565,2.89286e-06,9.13701e-06,-0.00667095,0.00714462,118.055,-1.95065,586.193,0.100728,0.013356,-1.58472,878,538.039,0.25,-0.25,0.0735,-0.000743909,0.0060754,-3.78414e-07,-0.0029703,-0.000267039,0.0136565,2.89286e-06,9.13701e-06,-0.00667095,0.00714462,118.055,-1.95065,586.193,0.100728,0.013356,-1.58472,878,538.039,0.25,-0.25,0.0735,-0.000743909,0.0060754,-3.78414e-07,-0.0029703,-0.000267039,0.0136565,2.89286e-06,9.13701e-06,-0.00667095,0.00714462,118.055,-1.95065,586.193,0.100728,0.013356,-1.58472,878,538.039,0.25,-0.25,0.0735,-0.000743909,0.0060754,-3.78414e-07,-0.0029703,-0.000267039,0.0136565,2.89286e-06,9.13701e-06,-0.00667095,0.00714462,118.055,-1.95065,586.193,0.100728,0.013356,-1.58472,878,538.039,0.25,-0.25,0.0735,-0.000743909,0.0060754,-3.78414e-07,-0.0029703,-0.000267039,0.0136565,2.89286e-06,9.13701e-06,-0.00667095,0.00714462,118.055,-1.95065,586.193,0.100728,0.013356,-1.58472,878,0,0,0,0,0,0,0,0,0,0,0,0,0,0,0,0,0,0,0,0,0,1
stats,66,1,0.67,541.341,0.25,-0.25,0.0735,-0.000768483,0.00617027,-6.39209e-07,-0.00309431,-0.000274519,0.0140387,5.68966e-06,8.35329e-06,-0.00693167,0.00757264,117.648,-1.91123,588.115,0.136501,-0.014504,-3.5374,878,541.341,0.25,-0.25,0.0735,-0.000768483,0.00617027,-6.39209e-07,-0.00309431,-0.000274519,0.0140387,5.68966e-06,8.35329e-06,-0.00693167,0.00757264,117.648,-1.91123,588.115,0.136501,-0.014504,-3.5374,878,541.341,0.25,-0.25,0.0735,-0.000768483,0.00617027,-6.39209e-07,-0.00309431,-0.000274519,0.0140387,5.68966e-06,8.35329e-06,-0.00693167,0.00757264,117.648,-1.91123,588.115,0.136501,-0.014504,-3.5374,878,541.341,0.25,-0.25,0.0735,-0.000768483,0.00617027,-6.39209e-07,-0.00309431,-0.000274519,0.0140387,5.68966e-06,8.35329e-06,-0.00693167,0.00757264,117.648,-1.91123,588.115,0.136501,-0.014504,-3.5374,878,541.341,0.25,-0.25,0.0735,-0.000768483,0.00617027,-6.39209e-07,-0.00309431,-0.000274519,0.0140387,5.68966e-06,8.35329e-06,-0.00693167,0.00757264,117.648,-1.91123,588.115,0.136501,-0.014504,-3.5374,878,541.341,0.25,-0.25,0.0735,-0.000768483,0.00617027,-6.39209e-07,-0.00309431,-0.000274519,0.0140387,5.68966e-06,8.35329e-06,-0.00693167,0.00757264,117.648,-1.91123,588.115,0.136501,-0.014504,-3.5374,878,0,0,0,0,0,0,0,0,0,0,0,0,0,0,0,0,0,0,0,0,0,1
stats,67,1,0.68,544.145,0.25,-0.25,0.0735,-0.000793854,0.0062654,-3.45176e-07,-0.00322076,-0.000281829,0.0144264,6.34186e-06,8.84132e-06,-0.00719478,0.00801452,117.336,-1.88275,589.762,0.141625,-0.00839645,-5.18976,878,544.145,0.25,-0.25,0.0735,-0.000793854,0.0062654,-3.45176e-07,-0.00322076,-0.000281829,0.0144264,6.34186e-06,8.84132e-06,-0.00719478,0.00801452,117.336,-1.88275,589.762,0.141625,-0.00839645,-5.18976,878,544.145,0.25,-0.25,0.0735,-0.000793854,0.0062654,-3.45176e-07,-0.00322076,-0.000281829,0.0144264,6.34186e-06,8.84132e-06,-0.00719478,0.00801452,117.336,-1.88275,589.762,0.141625,-0.00839645,-5.18976,878,544.145,0.25,-0.25,0.0735,-0.000793854,0.0062654,-3.45176e-07,-0.00322076,-0.000281829,0.0144264,6.34186e-06,8.84132e-06,-0.00719478,0.00801452,117.336,-1.88275,589.762,0.141625,-0.00839645,-5.18976,878,544.145,0.25,-0.25,0.0735,-0.000793854,0.0062654,-3.45176e-07,-0.00322076,-0.000281829,0.0144264,6.34186e-06,8.84132e-06,-0.00719478,0.00801452,117.336,-1.88275,589.762,0.141625,-0.00839645,-5.18976,878,544.145,0.25,-0.25,0.0735,-0.000793854,0.0062654,-3.45176e-07,-0.00322076,-0.000281829,0.0144264,6.34186e-06,8.84132e-06,-0.00719478,0.00801452,117.336,-1.88275,589.762,0.141625,-0.00839645,-5.18976,878,0,0,0,0,0,0,0,0,0,0,0,0,0,0,0,0,0,0,0,0,0,1
stats,68,1,0.69,546.282,0.25,-0.25,0.0735,-0.00082012,0.00636084,-1.23145e-06,-0.00334855,-0.000288602,0.0148167,8.0469e-06,8.69794e-06,-0.0074572,0.00846851,117.204,-1.87399,591.098,0.160782,-0.0155006,-6.37864,878,546.282,0.25,-0.25,0.0735,-0.00082012,0.00636084,-1.23145e-06,-0.00334855,-0.000288602,0.0148167,8.0469e-06,8.69794e-06,-0.0074572,0.00846851,117.204,-1.87399,591.098,0.160782,-0.0155006,-6.37864,878,546.282,0.25,-0.25,0.0735,-0.00082012,0.00636084,-1.23145e-06,-0.00334855,-0.000288602,0.0148167,8.0469e-06,8.69794e-06,-0.0074572,0.00846851,117.204,-1.87399,591.098,0.160782,-0.0155006,-6.37864,878,546.282,0.25,-0.25,0.0735,-0.00082012,0.00636084,-1.23145e-06,-0.00334855,-0.000288602,0.0148167,8.0469e-06,8.69794e-06,-0.0074572,0.00846851,117.204,-1.87399,591.098,0.160782,-0.0155006,-6.37864,878,546.282,0.25,-0.25,0.0735,-0.00082012,0.00636084,-1.23145e-06,-0.00334855,-0.000288602,0.0148167,8.0469e-06,8.69794e-06,-0.0074572,0.00846851,117.204,-1.87399,591.098,0.160782,-0.0155006,-6.37864,878,546.282,0.25,-0.25,0.0735,-0.00082012,0.00636084,-1.23145e-06,-0.00334855,-0.000288602,0.0148167,8.0469e-06,8.69794e-06,-0.0074572,0.00846851,117.204,-1.87399,591.098,0.160782,-0.0155006,-6.37864,878,0,0,0,0,0,0,0,0,0,0,0,0,0,0,0,0,0,0,0,0,0,1
stats,69,1,0.7,548.52,0.25,-0.25,0.0735,-0.000847116,0.0064565,-3.1922e-07,-0.00347922,-0.000296177,0.0152165,6.44149e-06,1.11441e-05,-0.00772589,0.0089326,117.056,-1.8677,592.522,0.135555,0.033072,-7.58178,878,548.52,0.25,-0.25,0.0735,-0.000847116,0.0064565,-3.1922e-07,-0.00347922,-0.000296177,0.0152165,6.44149e-06,1.11441e-05,-0.00772589,0.0089326,117.056,-1.8677,592.522,0.135555,0.033072,-7.58178,878,548.52,0.25,-0.25,0.0735,-0.000847116,0.0064565,-3.1922e-07,-0.00347922,-0.000296177,0.0152165,6.44149e-06,1.11441e-05,-0.00772589,0.0089326,117.056,-1.8677,592.522,0.135555,0.033072,-7.58178,878,548.52,0.25,-0.25,0.0735,-0.000847116,0.0064565,-3.1922e-07,-0.00347922,-0.000296177,0.0152165,6.44149e-06,1.11441e-05,-0.00772589,0.0089326,117.056,-1.8677,592.522,0.135555,0.033072,-7.58178,878,548.52,0.25,-0.25,0.0735,-0.000847116,0.0064565,-3.1922e-07,-0.00347922,-0.000296177,0.0152165,6.44149e-06,1.11441e-05,-0.00772589,0.0089326,117.056,-1.8677,592.522,0.135555,0.033072,-7.58178,878,548.52,0.25,-0.25,0.0735,-0.000847116,0.0064565,-3.1922e-07,-0.00347922,-0.000296177,0.0152165,6.44149e-06,1.11441e-05,-0.00772589,0.0089326,117.056,-1.8677,592.522,0.135555,0.033072,-7.58178,878,0,0,0,0,0,0,0,0,0,0,0,0,0,0,0,0,0,0,0,0,0,1
stats,70,1,0.71,550.986,0.25,-0.25,0.0735,-0.000874544,0.00655162,-7.20022e-07,-0.00361264,-0.000304392,0.0156242,5.7899e-06,1.3219e-05,-0.00800175,0.00940405,116.763,-1.87836,593.975,0.116723,0.0813565,-9.01557,878,550.986,0.25,-0.25,0.0735,-0.000874544,0.00655162,-7.20022e-07,-0.00361264,-0.000304392,0.0156242,5.7899e-06,1.3219e-05,-0.00800175,0.00940405,116.763,-1.87836,593.975,0.116723,0.0813565,-9.01557,878,550.986,0.25,-0.25,0.0735,-0.000874544,0.00655162,-7.20022e-07,-0.00361264,-0.000304392,0.0156242,5.7899e-06,1.3219e-05,-0.00800175,0.00940405,116.763,-1.87836,593.975,0.116723,0.0813565,-9.01557,878,550.986,0.25,-0.25,0.0735,-0.000874544,0.00655162,-7.20022e-07,-0.00361264,-0.000304392,0.0156242,5.7899e-06,1.3219e-05,-0.00800175,0.00940405,116.763,-1.87836,593.975,0.116723,0.0813565,-9.01557,878,550.986,0.25,-0.25,0.0735,-0.000874544,0.00655162,-7.20022e-07,-0.00361264,-0.000304392,0.0156242,5.7899e-06,1.3219e-05,-0.00800175,0.00940405,116.763,-1.87836,593.975,0.116723,0.0813565,-9.01557,878,550.986,0.25,-0.25,0.0735,-0.000874544,0.00655162,-7.20022e-07,-0.00361264,-0.000304392,0.0156242,5.7899e-06,1.3219e-05,-0.00800175,0.00940405,116.763,-1.87836,593.975,0.116723,0.0813565,-9.01557,878,0,0,0,0,0,0,0,0,0,0,0,0,0,0,0,0,0,0,0,0,0,1
stats,71,1,0.72,553.418,0.25,-0.25,0.0735,-0.000902959,0.00664607,-6.94357e-07,-0.00375056,-0.00031329,0.0160444,6.04255e-06,1.3886e-05,-0.00828671,0.00989199,116.405,-1.90214,595.342,0.114733,0.0826004,-10.4938,878,553.418,0.25,-0.25,0.0735,-0.000902959,0.00664607,-6.94357e-07,-0.00375056,-0.00031329,0.0160444,6.04255e-06,1.3886e-05,-0.00828671,0.00989199,116.405,-1.90214,595.342,0.114733,0.0826004,-10.4938,878,553.418,0.25,-0.25,0.0735,-0.000902959,0.00664607,-6.94357e-07,-0.00375056,-0.00031329,0.0160444,6.04255e-06,1.3886e-05,-0.00828671,0.00989199,116.405,-1.90214,595.342,0.114733,0.0826004,-10.4938,878,553.418,0.25,-0.25,0.0735,-0.000902959,0.00664607,-6.94357e-07,-0.00375056,-0.00031329,0.0160444,6.04255e-06,1.3886e-05,-0.00828671,0.00989199,116.405,-1.90214,595.342,0.114733,0.0826004,-10.4938,878,553.418,0.25,-0.25,0.0735,-0.000902959,0.00664607,-6.94357e-07,-0.00375056,-0.00031329,0.0160444,6.04255e-06,1.3886e-05,-0.00828671,0.00989199,116.405,-1.90214,595.342,0.114733,0.0826004,-10.4938,878,553.418,0.25,-0.25,0.0735,-0.000902959,0.00664607,-6.94357e-07,-0.00375056,-0.00031329,0.0160444,6.04255e-06,1.3886e-05,-0.00828671,0.00989199,116.405,-1.90214,595.342,0.114733,0.0826004,-10.4938,878,0,0,0,0,0,0,0,0,0,0,0,0,0,0,0,0,0,0,0,0,0,1
stats,72,1,0.73,555.744,0.25,-0.25,0.0735,-0.000931959,0.00673992,-5.1801e-07,-0.00389351,-0.000324962,0.0164788,6.36173e-06,1.36614e-05,-0.00858082,0.010399,116.036,-1.98845,596.647,0.115464,0.0558675,-11.8969,878,555.744,0.25,-0.25,0.0735,-0.000931959,0.00673992,-5.1801e-07,-0.00389351,-0.000324962,0.0164788,6.36173e-06,1.36614e-05,-0.00858082,0.010399,116.036,-1.98845,596.647,0.115464,0.0558675,-11.8969,878,555.744,0.25,-0.25,0.0735,-0.000931959,0.00673992,-5.1801e-07,-0.00389351,-0.000324962,0.0164788,6.36173e-06,1.36614e-05,-0.00858082,0.010399,116.036,-1.98845,596.647,0.115464,0.0558675,-11.8969,878,555.744,0.25,-0.25,0.0735,-0.000931959,0.00673992,-5.1801e-07,-0.00389351,-0.000324962,0.0164788,6.36173e-06,1.36614e-05,-0.00858082,0.010399,116.036,-1.98845,596.647,0.115464,0.0558675,-11.8969,878,555.744,0.25,-0.25,0.0735,-0.000931959,0.00673992,-5.1801e-07,-0.00389351,-0.000324962,0.0164788,6.36173e-06,1.36614e-05,-0.00858082,0.010399,116.036,-1.98845,596.647,0.115464,0.0558675,-11.8969,878,555.744,0.25,-0.25,0.0735,-0.000931959,0.00673992,-5.1801e-07,-0.00389351,-0.000324962,0.0164788,6.36173e-06,1.36614e-05,-0.00858082,0.010399,116.036,-1.98845,596.647,0.115464,0.0558675,-11.8969,878,0,0,0,0,0,0,0,0,0,0,0,0,0,0,0,0,0,0,0,0,0,1
stats,73,1,0.74,558.038,0.25,-0.25,0.0735,-0.000961511,0.00683354,-1.77282e-06,-0.00403924,-0.000336082,0.0169212,8.81277e-06,1.80717e-05,-0.00888034,0.0109165,115.639,-2.05542,597.923,0.174558,0.153209,-13.2805,878,558.038,0.25,-0.25,0.0735,-0.000961511,0.00683354,-1.77282e-06,-0.00403924,-0.000336082,0.0169212,8.81277e-06,1.80717e-05,-0.00888034,0.0109165,115.639,-2.05542,597.923,0.174558,0.153209,-13.2805,878,558.038,0.25,-0.25,0.0735,-0.000961511,0.00683354,-1.77282e-06,-0.00403924,-0.000336082,0.0169212,8.81277e-06,1.80717e-05,-0.00888034,0.0109165,115.639,-2.05542,597.923,0.174558,0.153209,-13.2805,878,558.038,0.25,-0.25,0.0735,-0.000961511,0.00683354,-1.77282e-06,-0.00403924,-0.000336082,0.0169212,8.81277e-06,1.80717e-05,-0.00888034,0.0109165,115.639,-2.05542,597.923,0.174558,0.153209,-13.2805,878,558.038,0.25,-0.25,0.0735,-0.000961511,0.00683354,-1.77282e-06,-0.00403924,-0.000336082,0.0169212,8.81277e-06,1.80717e-05,-0.00888034,0.0109165,115.639,-2.05542,597.923,0.174558,0.153209,-13.2805,878,558.038,0.25,-0.25,0.0735,-0.000961511,0.00683354,-1.77282e-06,-0.00403924,-0.000336082,0.0169212,8.81277e-06,1.80717e-05,-0.00888034,0.0109165,115.639,-2.05542,597.923,0.174558,0.153209,-13.2805,878,0,0,0,0,0,0,0,0,0,0,0,0,0,0,0,0,0,0,0,0,0,1
stats,74,1,0.75,560.219,0.25,-0.25,0.0735,-0.000992228,0.00692677,-3.567e-07,-0.00418848,-0.000339537,0.017379,8.66584e-06,2.12137e-05,-0.00919088,0.0114548,115.383,-1.94459,599.169,0.154087,0.20516,-14.6074,878,560.219,0.25,-0.25,0.0735,-0.000992228,0.00692677,-3.567e-07,-0.00418848,-0.000339537,0.017379,8.66584e-06,2.12137e-05,-0.00919088,0.0114548,115.383,-1.94459,599.169,0.154087,0.20516,-14.6074,878,560.219,0.25,-0.25,0.0735,-0.000992228,0.00692677,-3.567e-07,-0.00418848,-0.000339537,0.017379,8.66584e-06,2.12137e-05,-0.00919088,0.0114548,115.383,-1.94459,599.169,0.154087,0.20516,-14.6074,878,560.219,0.25,-0.25,0.0735,-0.000992228,0.00692677,-3.567e-07,-0.00418848,-0.000339537,0.017379,8.66584e-06,2.12137e-05,-0.00919088,0.0114548,115.383,-1.94459,599.169,0.154087,0.20516,-14.6074,878,560.219,0.25,-0.25,0.0735,-0.000992228,0.00692677,-3.567e-07,-0.00418848,-0.000339537,0.017379,8.66584e-06,2.12137e-05,-0.00919088,0.0114548,115.383,-1.94459,599.169,0.154087,0.20516,-14.6074,878,560.219,0.25,-0.25,0.0735,-0.000992228,0.00692677,-3.567e-07,-0.00418848,-0.000339537,0.017379,8.66584e-06,2.12137e-05,-0.00919088,0.0114548,115.383,-1.94459,599.169,0.154087,0.20516,-14.6074,878,0,0,0,0,0,0,0,0,0,0,0,0,0,0,0,0,0,0,0,0,0,1
stats,75,1,0.76,562.104,0.25,-0.25,0.0735,-0.00102273,0.00701709,-2.22032e-06,-0.00434478,-0.000349972,0.0178465,8.97002e-06,2.28778e-05,-0.00950779,0.0120106,114.845,-2.0955,600.026,0.146974,0.211725,-15.9243,878,562.104,0.25,-0.25,0.0735,-0.00102273,0.00701709,-2.22032e-06,-0.00434478,-0.000349972,0.0178465,8.97002e-06,2.28778e-05,-0.00950779,0.0120106,114.845,-2.0955,600.026,0.146974,0.211725,-15.9243,878,562.104,0.25,-0.25,0.0735,-0.00102273,0.00701709,-2.22032e-06,-0.00434478,-0.000349972,0.0178465,8.97002e-06,2.28778e-05,-0.00950779,0.0120106,114.845,-2.0955,600.026,0.146974,0.211725,-15.9243,878,562.104,0.25,-0.25,0.0735,-0.00102273,0.00701709,-2.22032e-06,-0.00434478,-0.000349972,0.0178465,8.97002e-06,2.28778e-05,-0.00950779,0.0120106,114.845,-2.0955,600.026,0.146974,0.211725,-15.9243,878,562.104,0.25,-0.25,0.0735,-0.00102273,0.00701709,-2.22032e-06,-0.00434478,-0.000349972,0.0178465,8.97002e-06,2.28778e-05,-0.00950779,0.0120106,114.845,-2.0955,600.026,0.146974,0.211725,-15.9243,878,562.104,0.25,-0.25,0.0735,-0.00102273,0.00701709,-2.22032e-06,-0.00434478,-0.000349972,0.0178465,8.97002e-06,2.28778e-05,-0.00950779,0.0120106,114.845,-2.0955,600.026,0.146974,0.211725,-15.9243,878,0,0,0,0,0,0,0,0,0,0,0,0,0,0,0,0,0,0,0,0,0,1
stats,76,1,0.77,564.043,0.25,-0.25,0.0735,-0.00105396,0.00710736,-2.48713e-06,-0.00450528,-0.000354134,0.0183213,9.36041e-06,2.40198e-05,-0.00982965,0.0125749,114.113,-2.06838,600.822,0.143313,0.200903,-17.3225,878,564.043,0.25,-0.25,0.0735,-0.00105396,0.00710736,-2.48713e-06,-0.00450528,-0.000354134,0.0183213,9.36041e-06,2.40198e-05,-0.00982965,0.0125749,114.113,-2.06838,600.822,0.143313,0.200903,-17.3225,878,564.043,0.25,-0.25,0.0735,-0.00105396,0.00710736,-2.48713e-06,-0.00450528,-0.000354134,0.0183213,9.36041e-06,2.40198e-05,-0.00982965,0.0125749,114.113,-2.06838,600.822,0.143313,0.200903,-17.3225,878,564.043,0.25,-0.25,0.0735,-0.00105396,0.00710736,-2.48713e-06,-0.00450528,-0.000354134,0.0183213,9.36041e-06,2.40198e-05,-0.00982965,0.0125749,114.113,-2.06838,600.822,0.143313,0.200903,-17.3225,878,564.043,0.25,-0.25,0.0735,-0.00105396,0.00710736,-2.48713e-06,-0.00450528,-0.000354134,0.0183213,9.36041e-06,2.40198e-05,-0.00982965,0.0125749,114.113,-2.06838,600.822,0.143313,0.200903,-17.3225,878,564.043,0.25,-0.25,0.0735,-0.00105396,0.00710736,-2.48713e-06,-0.00450528,-0.000354134,0.0183213,9.36041e-06,2.40198e-05,-0.00982965,0.0125749,114.113,-2.06838,600.822,0.143313,0.200903,-17.3225,878,0,0,0,0,0,0,0,0,0,0,0,0,0,0,0,0,0,0,0,0,0,1
stats,77,1,0.78,565.891,0.25,-0.25,0.0735,-0.00108586,0.0071959,-2.05352e-06,-0.0046699,-0.000358462,0.0188078,9.92955e-06,2.53826e-05,-0.0101594,0.0131554,113.383,-2.079,601.543,0.143315,0.201853,-18.694,878,565.891,0.25,-0.25,0.0735,-0.00108586,0.0071959,-2.05352e-06,-0.0046699,-0.000358462,0.0188078,9.92955e-06,2.53826e-05,-0.0101594,0.0131554,113.383,-2.079,601.543,0.143315,0.201853,-18.694,878,565.891,0.25,-0.25,0.0735,-0.00108586,0.0071959,-2.05352e-06,-0.0046699,-0.000358462,0.0188078,9.92955e-06,2.53826e-05,-0.0101594,0.0131554,113.383,-2.079,601.543,0.143315,0.201853,-18.694,878,565.891,0.25,-0.25,0.0735,-0.00108586,0.0071959,-2.05352e-06,-0.0046699,-0.000358462,0.0188078,9.92955e-06,2.53826e-05,-0.0101594,0.0131554,113.383,-2.079,601.543,0.143315,0.201853,-18.694,878,565.891,0.25,-0.25,0.0735,-0.00108586,0.0071959,-2.05352e-06,-0.0046699,-0.000358462,0.0188078,9.92955e-06,2.53826e-05,-0.0101594,0.0131554,113.383,-2.079,601.543,0.143315,0.201853,-18.694,878,565.891,0.25,-0.25,0.0735,-0.00108586,0.0071959,-2.05352e-06,-0.0046699,-0.000358462,0.0188078,9.92955e-06,2.53826e-05,-0.0101594,0.0131554,113.383,-2.079,601.543,0.143315,0.201853,-18.694,878,0,0,0,0,0,0,0,0,0,0,0,0,0,0,0,0,0,0,0,0,0,1
stats,78,1,0.79,567.508,0.25,-0.25,0.0735,-0.00111714,0.00728302,2.73747e-07,-0.00483766,-0.000358445,0.0192994,8.2043e-06,2.63529e-05,-0.0104934,0.0137464,112.567,-2.00512,601.986,0.0721689,0.189111,-20.0903,878,567.508,0.25,-0.25,0.0735,-0.00111714,0.00728302,2.73747e-07,-0.00483766,-0.000358445,0.0192994,8.2043e-06,2.63529e-05,-0.0104934,0.0137464,112.567,-2.00512,601.986,0.0721689,0.189111,-20.0903,878,567.508,0.25,-0.25,0.0735,-0.00111714,0.00728302,2.73747e-07,-0.00483766,-0.000358445,0.0192994,8.2043e-06,2.63529e-05,-0.0104934,0.0137464,112.567,-2.00512,601.986,0.0721689,0.189111,-20.0903,878,567.508,0.25,-0.25,0.0735,-0.00111714,0.00728302,2.73747e-07,-0.00483766,-0.000358445,0.0192994,8.2043e-06,2.63529e-05,-0.0104934,0.0137464,112.567,-2.00512,601.986,0.0721689,0.189111,-20.0903,878,567.508,0.25,-0.25,0.0735,-0.00111714,0.00728302,2.73747e-07,-0.00483766,-0.000358445,0.0192994,8.2043e-06,2.63529e-05,-0.0104934,0.0137464,112.567,-2.00512,601.986,0.0721689,0.189111,-20.0903,878,567.508,0.25,-0.25,0.0735,-0.00111714,0.00728302,2.73747e-07,-0.00483766,-0.000358445,0.0192994,8.2043e-06,2.63529e-05,-0.0104934,0.0137464,112.567,-2.00512,601.986,0.0721689,0.189111,-20.0903,878,0,0,0,0,0,0,0,0,0,0,0,0,0,0,0,0,0,0,0,0,0,1
stats,79,1,0.8,570.623,0.25,-0.25,0.0735,-0.00114901,0.00736966,1.1607e-06,-0.00501152,-0.000368011,0.0198127,9.37959e-06,2.88864e-05,-0.0108415,0.0143413,111.432,-2.1263,603.506,0.0959666,0.19639,-21.9964,878,570.623,0.25,-0.25,0.0735,-0.00114901,0.00736966,1.1607e-06,-0.00501152,-0.000368011,0.0198127,9.37959e-06,2.88864e-05,-0.0108415,0.0143413,111.432,-2.1263,603.506,0.0959666,0.19639,-21.9964,878,570.623,0.25,-0.25,0.0735,-0.00114901,0.00736966,1.1607e-06,-0.00501152,-0.000368011,0.0198127,9.37959e-06,2.88864e-05,-0.0108415,0.0143413,111.432,-2.1263,603.506,0.0959666,0.19639,-21.9964,878,570.623,0.25,-0.25,0.0735,-0.00114901,0.00736966,1.1607e-06,-0.00501152,-0.000368011,0.0198127,9.37959e-06,2.88864e-05,-0.0108415,0.0143413,111.432,-2.1263,603.506,0.0959666,0.19639,-21.9964,878,570.623,0.25,-0.25,0.0735,-0.00114901,0.00736966,1.1607e-06,-0.00501152,-0.000368011,0.0198127,9.37959e-06,2.88864e-05,-0.0108415,0.0143413,111.432,-2.1263,603.506,0.0959666,0.19639,-21.9964,878,570.623,0.25,-0.25,0.0735,-0.00114901,0.00736966,1.1607e-06,-0.00501152,-0.000368011,0.0198127,9.37959e-06,2.88864e-05,-0.0108415,0.0143413,111.432,-2.1263,603.506,0.0959666,0.19639,-21.9964,878,0,0,0,0,0,0,0,0,0,0,0,0,0,0,0,0,0,0,0,0,0,1
stats,80,1,0.81,571.436,0.25,-0.25,0.0735,-0.00118204,0.00745604,4.71965e-07,-0.00518415,-0.000366921,0.0203217,7.70521e-06,2.83077e-05,-0.011188,0.0149664,110.893,-1.96265,603.402,0.0424175,0.125799,-23.1207,878,571.436,0.25,-0.25,0.0735,-0.00118204,0.00745604,4.71965e-07,-0.00518415,-0.000366921,0.0203217,7.70521e-06,2.83077e-05,-0.011188,0.0149664,110.893,-1.96265,603.402,0.0424175,0.125799,-23.1207,878,571.436,0.25,-0.25,0.0735,-0.00118204,0.00745604,4.71965e-07,-0.00518415,-0.000366921,0.0203217,7.70521e-06,2.83077e-05,-0.011188,0.0149664,110.893,-1.96265,603.402,0.0424175,0.125799,-23.1207,878,571.436,0.25,-0.25,0.0735,-0.00118204,0.00745604,4.71965e-07,-0.00518415,-0.000366921,0.0203217,7.70521e-06,2.83077e-05,-0.011188,0.0149664,110.893,-1.96265,603.402,0.0424175,0.125799,-23.1207,878,571.436,0.25,-0.25,0.0735,-0.00118204,0.00745604,4.71965e-07,-0.00518415,-0.000366921,0.0203217,7.70521e-06,2.83077e-05,-0.011188,0.0149664,110.893,-1.96265,603.402,0.0424175,0.125799,-23.1207,878,571.436,0.25,-0.25,0.0735,-0.00118204,0.00745604,4.71965e-07,-0.00518415,-0.000366921,0.0203217,7.70521e-06,2.83077e-05,-0.011188,0.0149664,110.893,-1.96265,603.402,0.0424175,0.125799,-23.1207,878,0,0,0,0,0,0,0,0,0,0,0,0,0,0,0,0,0,0,0,0,0,1
stats,81,1,0.82,571.988,0.25,-0.25,0.0735,-0.00121387,0.00754103,-7.44582e-07,-0.00535767,-0.0003628,0.0208359,6.28347e-06,2.77277e-05,-0.0115365,0.015601,110.553,-1.76306,603.256,-0.00160667,0.0597052,-24.0067,878,571.988,0.25,-0.25,0.0735,-0.00121387,0.00754103,-7.44582e-07,-0.00535767,-0.0003628,0.0208359,6.28347e-06,2.77277e-05,-0.0115365,0.015601,110.553,-1.76306,603.256,-0.00160667,0.0597052,-24.0067,878,571.988,0.25,-0.25,0.0735,-0.00121387,0.00754103,-7.44582e-07,-0.00535767,-0.0003628,0.0208359,6.28347e-06,2.77277e-05,-0.0115365,0.015601,110.553,-1.76306,603.256,-0.00160667,0.0597052,-24.0067,878,571.988,0.25,-0.25,0.0735,-0.00121387,0.00754103,-7.44582e-07,-0.00535767,-0.0003628,0.0208359,6.28347e-06,2.77277e-05,-0.0115365,0.015601,110.553,-1.76306,603.256,-0.00160667,0.0597052,-24.0067,878,571.988,0.25,-0.25,0.0735,-0.00121387,0.00754103,-7.44582e-07,-0.00535767,-0.0003628,0.0208359,6.28347e-06,2.77277e-05,-0.0115365,0.015601,110.553,-1.76306,603.256,-0.00160667,0.0597052,-24.0067,878,571.988,0.25,-0.25,0.0735,-0.00121387,0.00754103,-7.44582e-07,-0.00535767,-0.0003628,0.0208359,6.28347e-06,2.77277e-05,-0.0115365,0.015601,110.553,-1.76306,603.256,-0.00160667,0.0597052,-24.0067,878,0,0,0,0,0,0,0,0,0,0,0,0,0,0,0,0,0,0,0,0,0,1
stats,82,1,0.83,573.248,0.25,-0.25,0.0735,-0.00124709,0.00762609,-1.91547e-06,-0.00553776,-0.000360041,0.0213589,6.61447e-06,2.66162e-05,-0.0118933,0.0162382,109.609,-1.65978,603.239,0.00385325,0.00355586,-25.4823,878,573.248,0.25,-0.25,0.0735,-0.00124709,0.00762609,-1.91547e-06,-0.00553776,-0.000360041,0.0213589,6.61447e-06,2.66162e-05,-0.0118933,0.0162382,109.609,-1.65978,603.239,0.00385325,0.00355586,-25.4823,878,573.248,0.25,-0.25,0.0735,-0.00124709,0.00762609,-1.91547e-06,-0.00553776,-0.000360041,0.0213589,6.61447e-06,2.66162e-05,-0.0118933,0.0162382,109.609,-1.65978,603.239,0.00385325,0.00355586,-25.4823,878,573.248,0.25,-0.25,0.0735,-0.00124709,0.00762609,-1.91547e-06,-0.00553776,-0.000360041,0.0213589,6.61447e-06,2.66162e-05,-0.0118933,0.0162382,109.609,-1.65978,603.239,0.00385325,0.00355586,-25.4823,878,573.248,0.25,-0.25,0.0735,-0.00124709,0.00762609,-1.91547e-06,-0.00553776,-0.000360041,0.0213589,6.61447e-06,2.66162e-05,-0.0118933,0.0162382,109.609,-1.65978,603.239,0.00385325,0.00355586,-25.4823,878,573.248,0.25,-0.25,0.0735,-0.00124709,0.00762609,-1.91547e-06,-0.00553776,-0.000360041,0.0213589,6.61447e-06,2.66162e-05,-0.0118933,0.0162382,109.609,-1.65978,603.239,0.00385325,0.00355586,-25.4823,878,0,0,0,0,0,0,0,0,0,0,0,0,0,0,0,0,0,0,0,0,0,1
stats,83,1,0.84,573.323,0.25,-0.25,0.0735,-0.00127902,0.00770995,-5.59663e-07,-0.00571063,-0.00036588,0.0218693,5.30865e-06,2.88472e-05,-0.0122409,0.0168766,109.319,-1.77891,602.638,-0.0316172,0.0232284,-26.3387,878,573.323,0.25,-0.25,0.0735,-0.00127902,0.00770995,-5.59663e-07,-0.00571063,-0.00036588,0.0218693,5.30865e-06,2.88472e-05,-0.0122409,0.0168766,109.319,-1.77891,602.638,-0.0316172,0.0232284,-26.3387,878,573.323,0.25,-0.25,0.0735,-0.00127902,0.00770995,-5.59663e-07,-0.00571063,-0.00036588,0.0218693,5.30865e-06,2.88472e-05,-0.0122409,0.0168766,109.319,-1.77891,602.638,-0.0316172,0.0232284,-26.3387,878,573.323,0.25,-0.25,0.0735,-0.00127902,0.00770995,-5.59663e-07,-0.00571063,-0.00036588,0.0218693,5.30865e-06,2.88472e-05,-0.0122409,0.0168766,109.319,-1.77891,602.638,-0.0316172,0.0232284,-26.3387,878,573.323,0.25,-0.25,0.0735,-0.00127902,0.00770995,-5.59663e-07,-0.00571063,-0.00036588,0.0218693,5.30865e-06,2.88472e-05,-0.0122409,0.0168766,109.319,-1.77891,602.638,-0.0316172,0.0232284,-26.3387,878,573.323,0.25,-0.25,0.0735,-0.00127902,0.00770995,-5.59663e-07,-0.00571063,-0.00036588,0.0218693,5.30865e-06,2.88472e-05,-0.0122409,0.0168766,109.319,-1.77891,602.638,-0.0316172,0.0232284,-26.3387,878,0,0,0,0,0,0,0,0,0,0,0,0,0,0,0,0,0,0,0,0,0,1
stats,84,1,0.85,574.248,0.25,-0.25,0.0735,-0.00131277,0.00779511,-3.22313e-06,-0.00589058,-0.000367066,0.0223943,5.55444e-06,3.36957e-05,-0.0125984,0.0175209,108.569,-1.77704,602.473,-0.0197772,0.129182,-27.6177,878,574.248,0.25,-0.25,0.0735,-0.00131277,0.00779511,-3.22313e-06,-0.00589058,-0.000367066,0.0223943,5.55444e-06,3.36957e-05,-0.0125984,0.0175209,108.569,-1.77704,602.473,-0.0197772,0.129182,-27.6177,878,574.248,0.25,-0.25,0.0735,-0.00131277,0.00779511,-3.22313e-06,-0.00589058,-0.000367066,0.0223943,5.55444e-06,3.36957e-05,-0.0125984,0.0175209,108.569,-1.77704,602.473,-0.0197772,0.129182,-27.6177,878,574.248,0.25,-0.25,0.0735,-0.00131277,0.00779511,-3.22313e-06,-0.00589058,-0.000367066,0.0223943,5.55444e-06,3.36957e-05,-0.0125984,0.0175209,108.569,-1.77704,602.473,-0.0197772,0.129182,-27.6177,878,574.248,0.25,-0.25,0.0735,-0.00131277,0.00779511,-3.22313e-06,-0.00589058,-0.000367066,0.0223943,5.55444e-06,3.36957e-05,-0.0125984,0.0175209,108.569,-1.77704,602.473,-0.0197772,0.129182,-27.6177,878,574.248,0.25,-0.25,0.0735,-0.00131277,0.00779511,-3.22313e-06,-0.00589058,-0.000367066,0.0223943,5.55444e-06,3.36957e-05,-0.0125984,0.0175209,108.569,-1.77704,602.473,-0.0197772,0.129182,-27.6177,878,0,0,0,0,0,0,0,0,0,0,0,0,0,0,0,0,0,0,0,0,0,1
stats,85,1,0.86,575.323,0.25,-0.25,0.0735,-0.00134633,0.00787897,-6.22501e-07,-0.0060742,-0.000371783,0.0229296,5.79317e-06,3.52156e-05,-0.0129646,0.0181768,107.7,-1.87586,602.282,-0.00880155,0.13279,-29.1021,878,575.323,0.25,-0.25,0.0735,-0.00134633,0.00787897,-6.22501e-07,-0.0060742,-0.000371783,0.0229296,5.79317e-06,3.52156e-05,-0.0129646,0.0181768,107.7,-1.87586,602.282,-0.00880155,0.13279,-29.1021,878,575.323,0.25,-0.25,0.0735,-0.00134633,0.00787897,-6.22501e-07,-0.0060742,-0.000371783,0.0229296,5.79317e-06,3.52156e-05,-0.0129646,0.0181768,107.7,-1.87586,602.282,-0.00880155,0.13279,-29.1021,878,575.323,0.25,-0.25,0.0735,-0.00134633,0.00787897,-6.22501e-07,-0.0060742,-0.000371783,0.0229296,5.79317e-06,3.52156e-05,-0.0129646,0.0181768,107.7,-1.87586,602.282,-0.00880155,0.13279,-29.1021,878,575.323,0.25,-0.25,0.0735,-0.00134633,0.00787897,-6.22501e-07,-0.0060742,-0.000371783,0.0229296,5.79317e-06,3.52156e-05,-0.0129646,0.0181768,107.7,-1.87586,602.282,-0.00880155,0.13279,-29.1021,878,575.323,0.25,-0.25,0.0735,-0.00134633,0.00787897,-6.22501e-07,-0.0060742,-0.000371783,0.0229296,5.79317e-06,3.52156e-05,-0.0129646,0.0181768,107.7,-1.87586,602.282,-0.00880155,0.13279,-29.1021,878,0,0,0,0,0,0,0,0,0,0,0,0,0,0,0,0,0,0,0,0,0,1
stats,86,1,0.87,575.843,0.25,-0.25,0.0735,-0.00137959,0.00796056,1.78232e-06,-0.00625639,-0.000378826,0.0234664,6.76123e-06,3.52477e-05,-0.0133319,0.0188426,107.192,-2.0233,601.81,0.0191165,0.0970832,-30.3325,878,575.843,0.25,-0.25,0.0735,-0.00137959,0.00796056,1.78232e-06,-0.00625639,-0.000378826,0.0234664,6.76123e-06,3.52477e-05,-0.0133319,0.0188426,107.192,-2.0233,601.81,0.0191165,0.0970832,-30.3325,878,575.843,0.25,-0.25,0.0735,-0.00137959,0.00796056,1.78232e-06,-0.00625639,-0.000378826,0.0234664,6.76123e-06,3.52477e-05,-0.0133319,0.0188426,107.192,-2.0233,601.81,0.0191165,0.0970832,-30.3325,878,575.843,0.25,-0.25,0.0735,-0.00137959,0.00796056,1.78232e-06,-0.00625639,-0.000378826,0.0234664,6.76123e-06,3.52477e-05,-0.0133319,0.0188426,107.192,-2.0233,601.81,0.0191165,0.0970832,-30.3325,878,575.843,0.25,-0.25,0.0735,-0.00137959,0.00796056,1.78232e-06,-0.00625639,-0.000378826,0.0234664,6.76123e-06,3.52477e-05,-0.0133319,0.0188426,107.192,-2.0233,601.81,0.0191165,0.0970832,-30.3325,878,575.843,0.25,-0.25,0.0735,-0.00137959,0.00796056,1.78232e-06,-0.00625639,-0.000378826,0.0234664,6.76123e-06,3.52477e-05,-0.0133319,0.0188426,107.192,-2.0233,601.81,0.0191165,0.0970832,-30.3325,878,0,0,0,0,0,0,0,0,0,0,0,0,0,0,0,0,0,0,0,0,0,1
stats,87,1,0.88,575.884,0.25,-0.25,0.0735,-0.00141384,0.00804177,3.92958e-07,-0.0064417,-0.000380913,0.0240085,6.03677e-06,3.85134e-05,-0.0137027,0.0195227,106.693,-2.01006,600.95,0.00179678,0.133629,-31.4224,878,575.884,0.25,-0.25,0.0735,-0.00141384,0.00804177,3.92958e-07,-0.0064417,-0.000380913,0.0240085,6.03677e-06,3.85134e-05,-0.0137027,0.0195227,106.693,-2.01006,600.95,0.00179678,0.133629,-31.4224,878,575.884,0.25,-0.25,0.0735,-0.00141384,0.00804177,3.92958e-07,-0.0064417,-0.000380913,0.0240085,6.03677e-06,3.85134e-05,-0.0137027,0.0195227,106.693,-2.01006,600.95,0.00179678,0.133629,-31.4224,878,575.884,0.25,-0.25,0.0735,-0.00141384,0.00804177,3.92958e-07,-0.0064417,-0.000380913,0.0240085,6.03677e-06,3.85134e-05,-0.0137027,0.0195227,106.693,-2.01006,600.95,0.00179678,0.133629,-31.4224,878,575.884,0.25,-0.25,0.0735,-0.00141384,0.00804177,3.92958e-07,-0.0064417,-0.000380913,0.0240085,6.03677e-06,3.85134e-05,-0.0137027,0.0195227,106.693,-2.01006,600.95,0.00179678,0.133629,-31.4224,878,575.884,0.25,-0.25,0.0735,-0.00141384,0.00804177,3.92958e-07,-0.0064417,-0.000380913,0.0240085,6.03677e-06,3.85134e-05,-0.0137027,0.0195227,106.693,-2.01006,600.95,0.00179678,0.133629,-31.4224,878,0,0,0,0,0,0,0,0,0,0,0,0,0,0,0,0,0,0,0,0,0,1
stats,88,1,0.89,577.189,0.25,-0.25,0.0735,-0.0014492,0.00812444,-1.42293e-06,-0.00663581,-0.000382073,0.0245681,6.65844e-06,4.31637e-05,-0.0140863,0.0202064,105.469,-1.9932,600.72,0.0204853,0.232701,-33.1428,878,577.189,0.25,-0.25,0.0735,-0.0014492,0.00812444,-1.42293e-06,-0.00663581,-0.000382073,0.0245681,6.65844e-06,4.31637e-05,-0.0140863,0.0202064,105.469,-1.9932,600.72,0.0204853,0.232701,-33.1428,878,577.189,0.25,-0.25,0.0735,-0.0014492,0.00812444,-1.42293e-06,-0.00663581,-0.000382073,0.0245681,6.65844e-06,4.31637e-05,-0.0140863,0.0202064,105.469,-1.9932,600.72,0.0204853,0.232701,-33.1428,878,577.189,0.25,-0.25,0.0735,-0.0014492,0.00812444,-1.42293e-06,-0.00663581,-0.000382073,0.0245681,6.65844e-06,4.31637e-05,-0.0140863,0.0202064,105.469,-1.9932,600.72,0.0204853,0.232701,-33.1428,878,577.189,0.25,-0.25,0.0735,-0.0014492,0.00812444,-1.42293e-06,-0.00663581,-0.000382073,0.0245681,6.65844e-06,4.31637e-05,-0.0140863,0.0202064,105.469,-1.9932,600.72,0.0204853,0.232701,-33.1428,878,577.189,0.25,-0.25,0.0735,-0.0014492,0.00812444,-1.42293e-06,-0.00663581,-0.000382073,0.0245681,6.65844e-06,4.31637e-05,-0.0140863,0.0202064,105.469,-1.9932,600.72,0.0204853,0.232701,-33.1428,878,0,0,0,0,0,0,0,0,0,0,0,0,0,0,0,0,0,0,0,0,0,1
stats,89,1,0.9,577.832,0.25,-0.25,0.0735,-0.00148511,0.00820843,-8.65328e-07,-0.0068251,-0.000376968,0.0251225,6.34904e-06,3.99892e-05,-0.0144675,0.0208939,104.721,-1.80545,600.136,0.00455095,0.070816,-34.6156,878,577.832,0.25,-0.25,0.0735,-0.00148511,0.00820843,-8.65328e-07,-0.0068251,-0.000376968,0.0251225,6.34904e-06,3.99892e-05,-0.0144675,0.0208939,104.721,-1.80545,600.136,0.00455095,0.070816,-34.6156,878,577.832,0.25,-0.25,0.0735,-0.00148511,0.00820843,-8.65328e-07,-0.0068251,-0.000376968,0.0251225,6.34904e-06,3.99892e-05,-0.0144675,0.0208939,104.721,-1.80545,600.136,0.00455095,0.070816,-34.6156,878,577.832,0.25,-0.25,0.0735,-0.00148511,0.00820843,-8.65328e-07,-0.0068251,-0.000376968,0.0251225,6.34904e-06,3.99892e-05,-0.0144675,0.0208939,104.721,-1.80545,600.136,0.00455095,0.070816,-34.6156,878,577.832,0.25,-0.25,0.0735,-0.00148511,0.00820843,-8.65328e-07,-0.0068251,-0.000376968,0.0251225,6.34904e-06,3.99892e-05,-0.0144675,0.0208939,104.721,-1.80545,600.136,0.00455095,0.070816,-34.6156,878,577.832,0.25,-0.25,0.0735,-0.00148511,0.00820843,-8.65328e-07,-0.0068251,-0.000376968,0.0251225,6.34904e-06,3.99892e-05,-0.0144675,0.0208939,104.721,-1.80545,600.136,0.00455095,0.070816,-34.6156,878,0,0,0,0,0,0,0,0,0,0,0,0,0,0,0,0,0,0,0,0,0,1
stats,90,1,0.91,578.984,0.25,-0.25,0.0735,-0.00152165,0.00829169,-1.53463e-06,-0.00701848,-0.00037681,0.025683,5.67291e-06,4.20461e-05,-0.0148528,0.0215815,103.59,-1.8173,599.786,-0.0132732,0.0951214,-36.3267,878,578.984,0.25,-0.25,0.0735,-0.00152165,0.00829169,-1.53463e-06,-0.00701848,-0.00037681,0.025683,5.67291e-06,4.20461e-05,-0.0148528,0.0215815,103.59,-1.8173,599.786,-0.0132732,0.0951214,-36.3267,878,578.984,0.25,-0.25,0.0735,-0.00152165,0.00829169,-1.53463e-06,-0.00701848,-0.00037681,0.025683,5.67291e-06,4.20461e-05,-0.0148528,0.0215815,103.59,-1.8173,599.786,-0.0132732,0.0951214,-36.3267,878,578.984,0.25,-0.25,0.0735,-0.00152165,0.00829169,-1.53463e-06,-0.00701848,-0.00037681,0.025683,5.67291e-06,4.20461e-05,-0.0148528,0.0215815,103.59,-1.8173,599.786,-0.0132732,0.0951214,-36.3267,878,578.984,0.25,-0.25,0.0735,-0.00152165,0.00829169,-1.53463e-06,-0.00701848,-0.00037681,0.025683,5.67291e-06,4.20461e-05,-0.0148528,0.0215815,103.59,-1.8173,599.786,-0.0132732,0.0951214,-36.3267,878,578.984,0.25,-0.25,0.0735,-0.00152165,0.00829169,-1.53463e-06,-0.00701848,-0.00037681,0.025683,5.67291e-06,4.20461e-05,-0.0148528,0.0215815,103.59,-1.8173,599.786,-0.0132732,0.0951214,-36.3267,878,0,0,0,0,0,0,0,0,0,0,0,0,0,0,0,0,0,0,0,0,0,1
stats,91,1,0.92,580.074,0.25,-0.25,0.0735,-0.001559,0.00837578,-1.43293e-06,-0.00721394,-0.000375255,0.0262511,5.76575e-06,4.29157e-05,-0.0152439,0.0222798,102.479,-1.72908,599.377,-0.00756156,0.0853196,-38.0405,878,580.074,0.25,-0.25,0.0735,-0.001559,0.00837578,-1.43293e-06,-0.00721394,-0.000375255,0.0262511,5.76575e-06,4.29157e-05,-0.0152439,0.0222798,102.479,-1.72908,599.377,-0.00756156,0.0853196,-38.0405,878,580.074,0.25,-0.25,0.0735,-0.001559,0.00837578,-1.43293e-06,-0.00721394,-0.000375255,0.0262511,5.76575e-06,4.29157e-05,-0.0152439,0.0222798,102.479,-1.72908,599.377,-0.00756156,0.0853196,-38.0405,878,580.074,0.25,-0.25,0.0735,-0.001559,0.00837578,-1.43293e-06,-0.00721394,-0.000375255,0.0262511,5.76575e-06,4.29157e-05,-0.0152439,0.0222798,102.479,-1.72908,599.377,-0.00756156,0.0853196,-38.0405,878,580.074,0.25,-0.25,0.0735,-0.001559,0.00837578,-1.43293e-06,-0.00721394,-0.000375255,0.0262511,5.76575e-06,4.29157e-05,-0.0152439,0.0222798,102.479,-1.72908,599.377,-0.00756156,0.0853196,-38.0405,878,580.074,0.25,-0.25,0.0735,-0.001559,0.00837578,-1.43293e-06,-0.00721394,-0.000375255,0.0262511,5.76575e-06,4.29157e-05,-0.0152439,0.0222798,102.479,-1.72908,599.377,-0.00756156,0.0853196,-38.0405,878,0,0,0,0,0,0,0,0,0,0,0,0,0,0,0,0,0,0,0,0,0,1
stats,92,1,0.93,580.87,0.25,-0.25,0.0735,-0.00159672,0.00845964,2.36983e-06,-0.00741148,-0.000374456,0.0268215,2.91519e-06,4.87841e-05,-0.0156361,0.0229857,101.363,-1.71603,598.732,-0.0916582,0.209512,-39.6576,878,580.87,0.25,-0.25,0.0735,-0.00159672,0.00845964,2.36983e-06,-0.00741148,-0.000374456,0.0268215,2.91519e-06,4.87841e-05,-0.0156361,0.0229857,101.363,-1.71603,598.732,-0.0916582,0.209512,-39.6576,878,580.87,0.25,-0.25,0.0735,-0.00159672,0.00845964,2.36983e-06,-0.00741148,-0.000374456,0.0268215,2.91519e-06,4.87841e-05,-0.0156361,0.0229857,101.363,-1.71603,598.732,-0.0916582,0.209512,-39.6576,878,580.87,0.25,-0.25,0.0735,-0.00159672,0.00845964,2.36983e-06,-0.00741148,-0.000374456,0.0268215,2.91519e-06,4.87841e-05,-0.0156361,0.0229857,101.363,-1.71603,598.732,-0.0916582,0.209512,-39.6576,878,580.87,0.25,-0.25,0.0735,-0.00159672,0.00845964,2.36983e-06,-0.00741148,-0.000374456,0.0268215,2.91519e-06,4.87841e-05,-0.0156361,0.0229857,101.363,-1.71603,598.732,-0.0916582,0.209512,-39.6576,878,580.87,0.25,-0.25,0.0735,-0.00159672,0.00845964,2.36983e-06,-0.00741148,-0.000374456,0.0268215,2.91519e-06,4.87841e-05,-0.0156361,0.0229857,101.363,-1.71603,598.732,-0.0916582,0.209512,-39.6576,878,0,0,0,0,0,0,0,0,0,0,0,0,0,0,0,0,0,0,0,0,0,1
stats,93,1,0.94,581.779,0.25,-0.25,0.0735,-0.00163414,0.00854296,-2.26271e-07,-0.00760797,-0.000373369,0.0273902,2.1016e-06,5.40451e-05,-0.0160266,0.0236873,100.285,-1.70276,598.217,-0.104106,0.296449,-41.2682,878,581.779,0.25,-0.25,0.0735,-0.00163414,0.00854296,-2.26271e-07,-0.00760797,-0.000373369,0.0273902,2.1016e-06,5.40451e-05,-0.0160266,0.0236873,100.285,-1.70276,598.217,-0.104106,0.296449,-41.2682,878,581.779,0.25,-0.25,0.0735,-0.00163414,0.00854296,-2.26271e-07,-0.00760797,-0.000373369,0.0273902,2.1016e-06,5.40451e-05,-0.0160266,0.0236873,100.285,-1.70276,598.217,-0.104106,0.296449,-41.2682,878,581.779,0.25,-0.25,0.0735,-0.00163414,0.00854296,-2.26271e-07,-0.00760797,-0.000373369,0.0273902,2.1016e-06,5.40451e-05,-0.0160266,0.0236873,100.285,-1.70276,598.217,-0.104106,0.296449,-41.2682,878,581.779,0.25,-0.25,0.0735,-0.00163414,0.00854296,-2.26271e-07,-0.00760797,-0.000373369,0.0273902,2.1016e-06,5.40451e-05,-0.0160266,0.0236873,100.285,-1.70276,598.217,-0.104106,0.296449,-41.2682,878,581.779,0.25,-0.25,0.0735,-0.00163414,0.00854296,-2.26271e-07,-0.00760797,-0.000373369,0.0273902,2.1016e-06,5.40451e-05,-0.0160266,0.0236873,100.285,-1.70276,598.217,-0.104106,0.296449,-41.2682,878,0,0,0,0,0,0,0,0,0,0,0,0,0,0,0,0,0,0,0,0,0,1
stats,94,1,0.95,582.768,0.25,-0.25,0.0735,-0.00167156,0.00862509,-3.95708e-07,-0.00780735,-0.000373604,0.0279639,1.48422e-06,5.49361e-05,-0.0164207,0.0243943,99.0429,-1.71602,597.679,-0.113491,0.256566,-42.9588,878,582.768,0.25,-0.25,0.0735,-0.00167156,0.00862509,-3.95708e-07,-0.00780735,-0.000373604,0.0279639,1.48422e-06,5.49361e-05,-0.0164207,0.0243943,99.0429,-1.71602,597.679,-0.113491,0.256566,-42.9588,878,582.768,0.25,-0.25,0.0735,-0.00167156,0.00862509,-3.95708e-07,-0.00780735,-0.000373604,0.0279639,1.48422e-06,5.49361e-05,-0.0164207,0.0243943,99.0429,-1.71602,597.679,-0.113491,0.256566,-42.9588,878,582.768,0.25,-0.25,0.0735,-0.00167156,0.00862509,-3.95708e-07,-0.00780735,-0.000373604,0.0279639,1.48422e-06,5.49361e-05,-0.0164207,0.0243943,99.0429,-1.71602,597.679,-0.113491,0.256566,-42.9588,878,582.768,0.25,-0.25,0.0735,-0.00167156,0.00862509,-3.95708e-07,-0.00780735,-0.000373604,0.0279639,1.48422e-06,5.49361e-05,-0.0164207,0.0243943,99.0429,-1.71602,597.679,-0.113491,0.256566,-42.9588,878,582.768,0.25,-0.25,0.0735,-0.00167156,0.00862509,-3.95708e-07,-0.00780735,-0.000373604,0.0279639,1.48422e-06,5.49361e-05,-0.0164207,0.0243943,99.0429,-1.71602,597.679,-0.113491,0.256566,-42.9588,878,0,0,0,0,0,0,0,0,0,0,0,0,0,0,0,0,0,0,0,0,0,1
stats,95,1,0.96,583.947,0.25,-0.25,0.0735,-0.00170972,0.00870764,-1.02652e-06,-0.0080089,-0.000374348,0.0285413,1.69697e-06,5.64339e-05,-0.0168179,0.0251035,97.6184,-1.71358,597.19,-0.092049,0.23711,-44.7769,878,583.947,0.25,-0.25,0.0735,-0.00170972,0.00870764,-1.02652e-06,-0.0080089,-0.000374348,0.0285413,1.69697e-06,5.64339e-05,-0.0168179,0.0251035,97.6184,-1.71358,597.19,-0.092049,0.23711,-44.7769,878,583.947,0.25,-0.25,0.0735,-0.00170972,0.00870764,-1.02652e-06,-0.0080089,-0.000374348,0.0285413,1.69697e-06,5.64339e-05,-0.0168179,0.0251035,97.6184,-1.71358,597.19,-0.092049,0.23711,-44.7769,878,583.947,0.25,-0.25,0.0735,-0.00170972,0.00870764,-1.02652e-06,-0.0080089,-0.000374348,0.0285413,1.69697e-06,5.64339e-05,-0.0168179,0.0251035,97.6184,-1.71358,597.19,-0.092049,0.23711,-44.7769,878,583.947,0.25,-0.25,0.0735,-0.00170972,0.00870764,-1.02652e-06,-0.0080089,-0.000374348,0.0285413,1.69697e-06,5.64339e-05,-0.0168179,0.0251035,97.6184,-1.71358,597.19,-0.092049,0.23711,-44.7769,878,583.947,0.25,-0.25,0.0735,-0.00170972,0.00870764,-1.02652e-06,-0.0080089,-0.000374348,0.0285413,1.69697e-06,5.64339e-05,-0.0168179,0.0251035,97.6184,-1.71358,597.19,-0.092049,0.23711,-44.7769,878,0,0,0,0,0,0,0,0,0,0,0,0,0,0,0,0,0,0,0,0,0,1
stats,96,1,0.97,585.063,0.25,-0.25,0.0735,-0.00174793,0.00878993,-2.05039e-06,-0.00821101,-0.000375398,0.0291199,1.92946e-06,5.85284e-05,-0.0172157,0.0258152,96.207,-1.71503,596.668,-0.0696256,0.237067,-46.5561,878,585.063,0.25,-0.25,0.0735,-0.00174793,0.00878993,-2.05039e-06,-0.00821101,-0.000375398,0.0291199,1.92946e-06,5.85284e-05,-0.0172157,0.0258152,96.207,-1.71503,596.668,-0.0696256,0.237067,-46.5561,878,585.063,0.25,-0.25,0.0735,-0.00174793,0.00878993,-2.05039e-06,-0.00821101,-0.000375398,0.0291199,1.92946e-06,5.85284e-05,-0.0172157,0.0258152,96.207,-1.71503,596.668,-0.0696256,0.237067,-46.5561,878,585.063,0.25,-0.25,0.0735,-0.00174793,0.00878993,-2.05039e-06,-0.00821101,-0.000375398,0.0291199,1.92946e-06,5.85284e-05,-0.0172157,0.0258152,96.207,-1.71503,596.668,-0.0696256,0.237067,-46.5561,878,585.063,0.25,-0.25,0.0735,-0.00174793,0.00878993,-2.05039e-06,-0.00821101,-0.000375398,0.0291199,1.92946e-06,5.85284e-05,-0.0172157,0.0258152,96.207,-1.71503,596.668,-0.0696256,0.237067,-46.5561,878,585.063,0.25,-0.25,0.0735,-0.00174793,0.00878993,-2.05039e-06,-0.00821101,-0.000375398,0.0291199,1.92946e-06,5.85284e-05,-0.0172157,0.0258152,96.207,-1.71503,596.668,-0.0696256,0.237067,-46.5561,878,0,0,0,0,0,0,0,0,0,0,0,0,0,0,0,0,0,0,0,0,0,1
stats,97,1,0.98,587.978,0.25,-0.25,0.0735,-0.0017876,0.00887304,-1.4323e-06,-0.00842227,-0.000367172,0.0297178,1.12042e-06,5.94439e-05,-0.0176274,0.0265245,93.935,-1.44311,597.148,-0.0854292,0.20576,-49.1661,878,587.978,0.25,-0.25,0.0735,-0.0017876,0.00887304,-1.4323e-06,-0.00842227,-0.000367172,0.0297178,1.12042e-06,5.94439e-05,-0.0176274,0.0265245,93.935,-1.44311,597.148,-0.0854292,0.20576,-49.1661,878,587.978,0.25,-0.25,0.0735,-0.0017876,0.00887304,-1.4323e-06,-0.00842227,-0.000367172,0.0297178,1.12042e-06,5.94439e-05,-0.0176274,0.0265245,93.935,-1.44311,597.148,-0.0854292,0.20576,-49.1661,878,587.978,0.25,-0.25,0.0735,-0.0017876,0.00887304,-1.4323e-06,-0.00842227,-0.000367172,0.0297178,1.12042e-06,5.94439e-05,-0.0176274,0.0265245,93.935,-1.44311,597.148,-0.0854292,0.20576,-49.1661,878,587.978,0.25,-0.25,0.0735,-0.0017876,0.00887304,-1.4323e-06,-0.00842227,-0.000367172,0.0297178,1.12042e-06,5.94439e-05,-0.0176274,0.0265245,93.935,-1.44311,597.148,-0.0854292,0.20576,-49.1661,878,587.978,0.25,-0.25,0.0735,-0.0017876,0.00887304,-1.4323e-06,-0.00842227,-0.000367172,0.0297178,1.12042e-06,5.94439e-05,-0.0176274,0.0265245,93.935,-1.44311,597.148,-0.0854292,0.20576,-49.1661,878,0,0,0,0,0,0,0,0,0,0,0,0,0,0,0,0,0,0,0,0,0,1
stats,98,1,0.99,587.907,0.25,-0.25,0.0735,-0.00182566,0.00895446,-1.42671e-06,-0.00862278,-0.000372073,0.0302931,-3.49896e-07,6.22635e-05,-0.0180236,0.0272505,92.922,-1.58367,595.808,-0.119584,0.227385,-50.5483,878,587.907,0.25,-0.25,0.0735,-0.00182566,0.00895446,-1.42671e-06,-0.00862278,-0.000372073,0.0302931,-3.49896e-07,6.22635e-05,-0.0180236,0.0272505,92.922,-1.58367,595.808,-0.119584,0.227385,-50.5483,878,587.907,0.25,-0.25,0.0735,-0.00182566,0.00895446,-1.42671e-06,-0.00862278,-0.000372073,0.0302931,-3.49896e-07,6.22635e-05,-0.0180236,0.0272505,92.922,-1.58367,595.808,-0.119584,0.227385,-50.5483,878,587.907,0.25,-0.25,0.0735,-0.00182566,0.00895446,-1.42671e-06,-0.00862278,-0.000372073,0.0302931,-3.49896e-07,6.22635e-05,-0.0180236,0.0272505,92.922,-1.58367,595.808,-0.119584,0.227385,-50.5483,878,587.907,0.25,-0.25,0.0735,-0.00182566,0.00895446,-1.42671e-06,-0.00862278,-0.000372073,0.0302931,-3.49896e-07,6.22635e-05,-0.0180236,0.0272505,92.922,-1.58367,595.808,-0.119584,0.227385,-50.5483,878,587.907,0.25,-0.25,0.0735,-0.00182566,0.00895446,-1.42671e-06,-0.00862278,-0.000372073,0.0302931,-3.49896e-07,6.22635e-05,-0.0180236,0.0272505,92.922,-1.58367,595.808,-0.119584,0.227385,-50.5483,878,0,0,0,0,0,0,0,0,0,0,0,0,0,0,0,0,0,0,0,0,0,1
stats,99,1,1,588.735,0.25,-0.25,0.0735,-0.00186601,0.00903638,-2.95512e-06,-0.00882812,-0.000373138,0.0308827,-3.23325e-07,6.14957e-05,-0.0184298,0.0279808,91.5886,-1.59962,595.039,-0.0986073,0.152681,-52.2916,878,588.735,0.25,-0.25,0.0735,-0.00186601,0.00903638,-2.95512e-06,-0.00882812,-0.000373138,0.0308827,-3.23325e-07,6.14957e-05,-0.0184298,0.0279808,91.5886,-1.59962,595.039,-0.0986073,0.152681,-52.2916,878,588.735,0.25,-0.25,0.0735,-0.00186601,0.00903638,-2.95512e-06,-0.00882812,-0.000373138,0.0308827,-3.23325e-07,6.14957e-05,-0.0184298,0.0279808,91.5886,-1.59962,595.039,-0.0986073,0.152681,-52.2916,878,588.735,0.25,-0.25,0.0735,-0.00186601,0.00903638,-2.95512e-06,-0.00882812,-0.000373138,0.0308827,-3.23325e-07,6.14957e-05,-0.0184298,0.0279808,91.5886,-1.59962,595.039,-0.0986073,0.152681,-52.2916,878,588.735,0.25,-0.25,0.0735,-0.00186601,0.00903638,-2.95512e-06,-0.00882812,-0.000373138,0.0308827,-3.23325e-07,6.14957e-05,-0.0184298,0.0279808,91.5886,-1.59962,595.039,-0.0986073,0.152681,-52.2916,878,588.735,0.25,-0.25,0.0735,-0.00186601,0.00903638,-2.95512e-06,-0.00882812,-0.000373138,0.0308827,-3.23325e-07,6.14957e-05,-0.0184298,0.0279808,91.5886,-1.59962,595.039,-0.0986073,0.152681,-52.2916,878,0,0,0,0,0,0,0,0,0,0,0,0,0,0,0,0,0,0,0,0,0,1
