Block Name,Row ID,N,Time,avg(VonMises),avg(X),avg(Y),avg(Z),avg(dx),avg(dy),avg(dz),avg(e11),avg(e12),avg(e22),avg(e23),avg(e31),avg(e33),avg(lambda),avg(s11),avg(s12),avg(s22),avg(s23),avg(s31),avg(s33),avg(vtkOriginalPointIds),max(VonMises),max(X),max(Y),max(Z),max(dx),max(dy),max(dz),max(e11),max(e12),max(e22),max(e23),max(e31),max(e33),max(lambda),max(s11),max(s12),max(s22),max(s23),max(s31),max(s33),max(vtkOriginalPointIds),med(VonMises),med(X),med(Y),med(Z),med(dx),med(dy),med(dz),med(e11),med(e12),med(e22),med(e23),med(e31),med(e33),med(lambda),med(s11),med(s12),med(s22),med(s23),med(s31),med(s33),med(vtkOriginalPointIds),min(VonMises),min(X),min(Y),min(Z),min(dx),min(dy),min(dz),min(e11),min(e12),min(e22),min(e23),min(e31),min(e33),min(lambda),min(s11),min(s12),min(s22),min(s23),min(s31),min(s33),min(vtkOriginalPointIds),q1(VonMises),q1(X),q1(Y),q1(Z),q1(dx),q1(dy),q1(dz),q1(e11),q1(e12),q1(e22),q1(e23),q1(e31),q1(e33),q1(lambda),q1(s11),q1(s12),q1(s22),q1(s23),q1(s31),q1(s33),q1(vtkOriginalPointIds),q3(VonMises),q3(X),q3(Y),q3(Z),q3(dx),q3(dy),q3(dz),q3(e11),q3(e12),q3(e22),q3(e23),q3(e31),q3(e33),q3(lambda),q3(s11),q3(s12),q3(s22),q3(s23),q3(s31),q3(s33),q3(vtkOriginalPointIds),std(VonMises),std(X),std(Y),std(Z),std(dx),std(dy),std(dz),std(e11),std(e12),std(e22),std(e23),std(e31),std(e33),std(lambda),std(s11),std(s12),std(s22),std(s23),std(s31),std(s33),std(vtkOriginalPointIds),vtkValidPointMask
stats,0,1,0.01,11.0775,0.25,-0.25,0.0735,-8.20253e-06,9.03742e-05,7.23535e-15,-2.49917e-05,-6.96154e-06,0.000162306,-2.57005e-15,5.76615e-15,-5.77408e-05,0,1.86784,-0.187426,11.9531,-6.91937e-11,1.55242e-10,0.104425,878,11.0775,0.25,-0.25,0.0735,-8.20253e-06,9.03742e-05,7.23535e-15,-2.49917e-05,-6.96154e-06,0.000162306,-2.57005e-15,5.76615e-15,-5.77408e-05,0,1.86784,-0.187426,11.9531,-6.91937e-11,1.55242e-10,0.104425,878,11.0775,0.25,-0.25,0.0735,-8.20253e-06,9.03742e-05,7.23535e-15,-2.49917e-05,-6.96154e-06,0.000162306,-2.57005e-15,5.76615e-15,-5.77408e-05,0,1.86784,-0.187426,11.9531,-6.91937e-11,1.55242e-10,0.104425,878,11.0775,0.25,-0.25,0.0735,-8.20253e-06,9.03742e-05,7.23535e-15,-2.49917e-05,-6.96154e-06,0.000162306,-2.57005e-15,5.76615e-15,-5.77408e-05,0,1.86784,-0.187426,11.9531,-6.91937e-11,1.55242e-10,0.104425,878,11.0775,0.25,-0.25,0.0735,-8.20253e-06,9.03742e-05,7.23535e-15,-2.49917e-05,-6.96154e-06,0.000162306,-2.57005e-15,5.76615e-15,-5.77408e-05,0,1.86784,-0.187426,11.9531,-6.91937e-11,1.55242e-10,0.104425,878,11.0775,0.25,-0.25,0.0735,-8.20253e-06,9.03742e-05,7.23535e-15,-2.49917e-05,-6.96154e-06,0.000162306,-2.57005e-15,5.76615e-15,-5.77408e-05,0,1.86784,-0.187426,11.9531,-6.91937e-11,1.55242e-10,0.104425,878,0,0,0,0,0,0,0,0,0,0,0,0,0,0,0,0,0,0,0,0,0,1
stats,1,1,0.02,22.1551,0.25,-0.25,0.0735,-1.64051e-05,0.000180748,1.58606e-14,-4.99834e-05,-1.39231e-05,0.000324612,-5.09926e-15,1.15374e-14,-0.000115482,0,3.73567,-0.374852,23.9062,-1.37288e-10,3.10622e-10,0.208851,878,22.1551,0.25,-0.25,0.0735,-1.64051e-05,0.000180748,1.58606e-14,-4.99834e-05,-1.39231e-05,0.000324612,-5.09926e-15,1.15374e-14,-0.000115482,0,3.73567,-0.374852,23.9062,-1.37288e-10,3.10622e-10,0.208851,878,22.1551,0.25,-0.25,0.0735,-1.64051e-05,0.000180748,1.58606e-14,-4.99834e-05,-1.39231e-05,0.000324612,-5.09926e-15,1.15374e-14,-0.000115482,0,3.73567,-0.374852,23.9062,-1.37288e-10,3.10622e-10,0.208851,878,22.1551,0.25,-0.25,0.0735,-1.64051e-05,0.000180748,1.58606e-14,-4.99834e-05,-1.39231e-05,0.000324612,-5.09926e-15,1.15374e-14,-0.000115482,0,3.73567,-0.374852,23.9062,-1.37288e-10,3.10622e-10,0.208851,878,22.1551,0.25,-0.25,0.0735,-1.64051e-05,0.000180748,1.58606e-14,-4.99834e-05,-1.39231e-05,0.000324612,-5.09926e-15,1.15374e-14,-0.000115482,0,3.73567,-0.374852,23.9062,-1.37288e-10,3.10622e-10,0.208851,878,22.1551,0.25,-0.25,0.0735,-1.64051e-05,0.000180748,1.58606e-14,-4.99834e-05,-1.39231e-05,0.000324612,-5.09926e-15,1.15374e-14,-0.000115482,0,3.73567,-0.374852,23.9062,-1.37288e-10,3.10622e-10,0.208851,878,0,0,0,0,0,0,0,0,0,0,0,0,0,0,0,0,0,0,0,0,0,1
stats,2,1,0.03,33.2326,0.25,-0.25,0.0735,-2.46076e-05,0.000271123,2.44697e-14,-7.49751e-05,-2.08846e-05,0.000486918,-7.6293e-15,1.73085e-14,-0.000173222,0,5.60351,-0.562278,35.8593,-2.05404e-10,4.65999e-10,0.313276,878,33.2326,0.25,-0.25,0.0735,-2.46076e-05,0.000271123,2.44697e-14,-7.49751e-05,-2.08846e-05,0.000486918,-7.6293e-15,1.73085e-14,-0.000173222,0,5.60351,-0.562278,35.8593,-2.05404e-10,4.65999e-10,0.313276,878,33.2326,0.25,-0.25,0.0735,-2.46076e-05,0.000271123,2.44697e-14,-7.49751e-05,-2.08846e-05,0.000486918,-7.6293e-15,1.73085e-14,-0.000173222,0,5.60351,-0.562278,35.8593,-2.05404e-10,4.65999e-10,0.313276,878,33.2326,0.25,-0.25,0.0735,-2.46076e-05,0.000271123,2.44697e-14,-7.49751e-05,-2.08846e-05,0.000486918,-7.6293e-15,1.73085e-14,-0.000173222,0,5.60351,-0.562278,35.8593,-2.05404e-10,4.65999e-10,0.313276,878,33.2326,0.25,-0.25,0.0735,-2.46076e-05,0.000271123,2.44697e-14,-7.49751e-05,-2.08846e-05,0.000486918,-7.6293e-15,1.73085e-14,-0.000173222,0,5.60351,-0.562278,35.8593,-2.05404e-10,4.65999e-10,0.313276,878,33.2326,0.25,-0.25,0.0735,-2.46076e-05,0.000271123,2.44697e-14,-7.49751e-05,-2.08846e-05,0.000486918,-7.6293e-15,1.73085e-14,-0.000173222,0,5.60351,-0.562278,35.8593,-2.05404e-10,4.65999e-10,0.313276,878,0,0,0,0,0,0,0,0,0,0,0,0,0,0,0,0,0,0,0,0,0,1
stats,3,1,0.04,44.3101,0.25,-0.25,0.0735,-3.28101e-05,0.000361497,3.31028e-14,-9.99668e-05,-2.78461e-05,0.000649224,-1.01587e-14,2.30803e-14,-0.000230963,0,7.47134,-0.749704,47.8124,-2.73502e-10,6.21392e-10,0.417702,878,44.3101,0.25,-0.25,0.0735,-3.28101e-05,0.000361497,3.31028e-14,-9.99668e-05,-2.78461e-05,0.000649224,-1.01587e-14,2.30803e-14,-0.000230963,0,7.47134,-0.749704,47.8124,-2.73502e-10,6.21392e-10,0.417702,878,44.3101,0.25,-0.25,0.0735,-3.28101e-05,0.000361497,3.31028e-14,-9.99668e-05,-2.78461e-05,0.000649224,-1.01587e-14,2.30803e-14,-0.000230963,0,7.47134,-0.749704,47.8124,-2.73502e-10,6.21392e-10,0.417702,878,44.3101,0.25,-0.25,0.0735,-3.28101e-05,0.000361497,3.31028e-14,-9.99668e-05,-2.78461e-05,0.000649224,-1.01587e-14,2.30803e-14,-0.000230963,0,7.47134,-0.749704,47.8124,-2.73502e-10,6.21392e-10,0.417702,878,44.3101,0.25,-0.25,0.0735,-3.28101e-05,0.000361497,3.31028e-14,-9.99668e-05,-2.78461e-05,0.000649224,-1.01587e-14,2.30803e-14,-0.000230963,0,7.47134,-0.749704,47.8124,-2.73502e-10,6.21392e-10,0.417702,878,44.3101,0.25,-0.25,0.0735,-3.28101e-05,0.000361497,3.31028e-14,-9.99668e-05,-2.78461e-05,0.000649224,-1.01587e-14,2.30803e-14,-0.000230963,0,7.47134,-0.749704,47.8124,-2.73502e-10,6.21392e-10,0.417702,878,0,0,0,0,0,0,0,0,0,0,0,0,0,0,0,0,0,0,0,0,0,1
stats,4,1,0.05,55.3877,0.25,-0.25,0.0735,-4.10127e-05,0.000451871,4.16838e-14,-0.000124959,-3.48077e-05,0.00081153,-1.26881e-14,2.88512e-14,-0.000288704,0,9.33918,-0.93713,59.7655,-3.41603e-10,7.76764e-10,0.522127,878,55.3877,0.25,-0.25,0.0735,-4.10127e-05,0.000451871,4.16838e-14,-0.000124959,-3.48077e-05,0.00081153,-1.26881e-14,2.88512e-14,-0.000288704,0,9.33918,-0.93713,59.7655,-3.41603e-10,7.76764e-10,0.522127,878,55.3877,0.25,-0.25,0.0735,-4.10127e-05,0.000451871,4.16838e-14,-0.000124959,-3.48077e-05,0.00081153,-1.26881e-14,2.88512e-14,-0.000288704,0,9.33918,-0.93713,59.7655,-3.41603e-10,7.76764e-10,0.522127,878,55.3877,0.25,-0.25,0.0735,-4.10127e-05,0.000451871,4.16838e-14,-0.000124959,-3.48077e-05,0.00081153,-1.26881e-14,2.88512e-14,-0.000288704,0,9.33918,-0.93713,59.7655,-3.41603e-10,7.76764e-10,0.522127,878,55.3877,0.25,-0.25,0.0735,-4.10127e-05,0.000451871,4.16838e-14,-0.000124959,-3.48077e-05,0.00081153,-1.26881e-14,2.88512e-14,-0.000288704,0,9.33918,-0.93713,59.7655,-3.41603e-10,7.76764e-10,0.522127,878,55.3877,0.25,-0.25,0.0735,-4.10127e-05,0.000451871,4.16838e-14,-0.000124959,-3.48077e-05,0.00081153,-1.26881e-14,2.88512e-14,-0.000288704,0,9.33918,-0.93713,59.7655,-3.41603e-10,7.76764e-10,0.522127,878,0,0,0,0,0,0,0,0,0,0,0,0,0,0,0,0,0,0,0,0,0,1
stats,5,1,0.06,66.4652,0.25,-0.25,0.0735,-4.92152e-05,0.000542245,5.02624e-14,-0.00014995,-4.17692e-05,0.000973835,-1.52172e-14,3.46227e-14,-0.000346445,0,11.207,-1.12456,71.7185,-4.09694e-10,9.3215e-10,0.626553,878,66.4652,0.25,-0.25,0.0735,-4.92152e-05,0.000542245,5.02624e-14,-0.00014995,-4.17692e-05,0.000973835,-1.52172e-14,3.46227e-14,-0.000346445,0,11.207,-1.12456,71.7185,-4.09694e-10,9.3215e-10,0.626553,878,66.4652,0.25,-0.25,0.0735,-4.92152e-05,0.000542245,5.02624e-14,-0.00014995,-4.17692e-05,0.000973835,-1.52172e-14,3.46227e-14,-0.000346445,0,11.207,-1.12456,71.7185,-4.09694e-10,9.3215e-10,0.626553,878,66.4652,0.25,-0.25,0.0735,-4.92152e-05,0.000542245,5.02624e-14,-0.00014995,-4.17692e-05,0.000973835,-1.52172e-14,3.46227e-14,-0.000346445,0,11.207,-1.12456,71.7185,-4.09694e-10,9.3215e-10,0.626553,878,66.4652,0.25,-0.25,0.0735,-4.92152e-05,0.000542245,5.02624e-14,-0.00014995,-4.17692e-05,0.000973835,-1.52172e-14,3.46227e-14,-0.000346445,0,11.207,-1.12456,71.7185,-4.09694e-10,9.3215e-10,0.626553,878,66.4652,0.25,-0.25,0.0735,-4.92152e-05,0.000542245,5.02624e-14,-0.00014995,-4.17692e-05,0.000973835,-1.52172e-14,3.46227e-14,-0.000346445,0,11.207,-1.12456,71.7185,-4.09694e-10,9.3215e-10,0.626553,878,0,0,0,0,0,0,0,0,0,0,0,0,0,0,0,0,0,0,0,0,0,1
stats,6,1,0.07,77.5428,0.25,-0.25,0.0735,-5.74177e-05,0.000632619,5.88349e-14,-0.000174942,-4.87308e-05,0.00113614,-1.77449e-14,4.03941e-14,-0.000404185,0,13.0749,-1.31198,83.6716,-4.77748e-10,1.08753e-09,0.730978,878,77.5428,0.25,-0.25,0.0735,-5.74177e-05,0.000632619,5.88349e-14,-0.000174942,-4.87308e-05,0.00113614,-1.77449e-14,4.03941e-14,-0.000404185,0,13.0749,-1.31198,83.6716,-4.77748e-10,1.08753e-09,0.730978,878,77.5428,0.25,-0.25,0.0735,-5.74177e-05,0.000632619,5.88349e-14,-0.000174942,-4.87308e-05,0.00113614,-1.77449e-14,4.03941e-14,-0.000404185,0,13.0749,-1.31198,83.6716,-4.77748e-10,1.08753e-09,0.730978,878,77.5428,0.25,-0.25,0.0735,-5.74177e-05,0.000632619,5.88349e-14,-0.000174942,-4.87308e-05,0.00113614,-1.77449e-14,4.03941e-14,-0.000404185,0,13.0749,-1.31198,83.6716,-4.77748e-10,1.08753e-09,0.730978,878,77.5428,0.25,-0.25,0.0735,-5.74177e-05,0.000632619,5.88349e-14,-0.000174942,-4.87308e-05,0.00113614,-1.77449e-14,4.03941e-14,-0.000404185,0,13.0749,-1.31198,83.6716,-4.77748e-10,1.08753e-09,0.730978,878,77.5428,0.25,-0.25,0.0735,-5.74177e-05,0.000632619,5.88349e-14,-0.000174942,-4.87308e-05,0.00113614,-1.77449e-14,4.03941e-14,-0.000404185,0,13.0749,-1.31198,83.6716,-4.77748e-10,1.08753e-09,0.730978,878,0,0,0,0,0,0,0,0,0,0,0,0,0,0,0,0,0,0,0,0,0,1
stats,7,1,0.08,88.6203,0.25,-0.25,0.0735,-6.56203e-05,0.000722994,6.74258e-14,-0.000199934,-5.56923e-05,0.00129845,-2.02763e-14,4.61653e-14,-0.000461926,0,14.9427,-1.49941,95.6247,-5.459e-10,1.24291e-09,0.835404,878,88.6203,0.25,-0.25,0.0735,-6.56203e-05,0.000722994,6.74258e-14,-0.000199934,-5.56923e-05,0.00129845,-2.02763e-14,4.61653e-14,-0.000461926,0,14.9427,-1.49941,95.6247,-5.459e-10,1.24291e-09,0.835404,878,88.6203,0.25,-0.25,0.0735,-6.56203e-05,0.000722994,6.74258e-14,-0.000199934,-5.56923e-05,0.00129845,-2.02763e-14,4.61653e-14,-0.000461926,0,14.9427,-1.49941,95.6247,-5.459e-10,1.24291e-09,0.835404,878,88.6203,0.25,-0.25,0.0735,-6.56203e-05,0.000722994,6.74258e-14,-0.000199934,-5.56923e-05,0.00129845,-2.02763e-14,4.61653e-14,-0.000461926,0,14.9427,-1.49941,95.6247,-5.459e-10,1.24291e-09,0.835404,878,88.6203,0.25,-0.25,0.0735,-6.56203e-05,0.000722994,6.74258e-14,-0.000199934,-5.56923e-05,0.00129845,-2.02763e-14,4.61653e-14,-0.000461926,0,14.9427,-1.49941,95.6247,-5.459e-10,1.24291e-09,0.835404,878,88.6203,0.25,-0.25,0.0735,-6.56203e-05,0.000722994,6.74258e-14,-0.000199934,-5.56923e-05,0.00129845,-2.02763e-14,4.61653e-14,-0.000461926,0,14.9427,-1.49941,95.6247,-5.459e-10,1.24291e-09,0.835404,878,0,0,0,0,0,0,0,0,0,0,0,0,0,0,0,0,0,0,0,0,0,1
stats,8,1,0.09,99.6978,0.25,-0.25,0.0735,-7.38228e-05,0.000813368,7.6039e-14,-0.000224925,-6.26538e-05,0.00146075,-2.28079e-14,5.19363e-14,-0.000519667,0,16.8105,-1.68683,107.578,-6.14059e-10,1.39828e-09,0.939829,878,99.6978,0.25,-0.25,0.0735,-7.38228e-05,0.000813368,7.6039e-14,-0.000224925,-6.26538e-05,0.00146075,-2.28079e-14,5.19363e-14,-0.000519667,0,16.8105,-1.68683,107.578,-6.14059e-10,1.39828e-09,0.939829,878,99.6978,0.25,-0.25,0.0735,-7.38228e-05,0.000813368,7.6039e-14,-0.000224925,-6.26538e-05,0.00146075,-2.28079e-14,5.19363e-14,-0.000519667,0,16.8105,-1.68683,107.578,-6.14059e-10,1.39828e-09,0.939829,878,99.6978,0.25,-0.25,0.0735,-7.38228e-05,0.000813368,7.6039e-14,-0.000224925,-6.26538e-05,0.00146075,-2.28079e-14,5.19363e-14,-0.000519667,0,16.8105,-1.68683,107.578,-6.14059e-10,1.39828e-09,0.939829,878,99.6978,0.25,-0.25,0.0735,-7.38228e-05,0.000813368,7.6039e-14,-0.000224925,-6.26538e-05,0.00146075,-2.28079e-14,5.19363e-14,-0.000519667,0,16.8105,-1.68683,107.578,-6.14059e-10,1.39828e-09,0.939829,878,99.6978,0.25,-0.25,0.0735,-7.38228e-05,0.000813368,7.6039e-14,-0.000224925,-6.26538e-05,0.00146075,-2.28079e-14,5.19363e-14,-0.000519667,0,16.8105,-1.68683,107.578,-6.14059e-10,1.39828e-09,0.939829,878,0,0,0,0,0,0,0,0,0,0,0,0,0,0,0,0,0,0,0,0,0,1
stats,9,1,0.1,110.775,0.25,-0.25,0.0735,-8.20253e-05,0.000903742,8.46611e-14,-0.000249917,-6.96154e-05,0.00162306,-2.53367e-14,5.77075e-14,-0.000577408,0,18.6784,-1.87426,119.531,-6.82142e-10,1.55366e-09,1.04425,878,110.775,0.25,-0.25,0.0735,-8.20253e-05,0.000903742,8.46611e-14,-0.000249917,-6.96154e-05,0.00162306,-2.53367e-14,5.77075e-14,-0.000577408,0,18.6784,-1.87426,119.531,-6.82142e-10,1.55366e-09,1.04425,878,110.775,0.25,-0.25,0.0735,-8.20253e-05,0.000903742,8.46611e-14,-0.000249917,-6.96154e-05,0.00162306,-2.53367e-14,5.77075e-14,-0.000577408,0,18.6784,-1.87426,119.531,-6.82142e-10,1.55366e-09,1.04425,878,110.775,0.25,-0.25,0.0735,-8.20253e-05,0.000903742,8.46611e-14,-0.000249917,-6.96154e-05,0.00162306,-2.53367e-14,5.77075e-14,-0.000577408,0,18.6784,-1.87426,119.531,-6.82142e-10,1.55366e-09,1.04425,878,110.775,0.25,-0.25,0.0735,-8.20253e-05,0.000903742,8.46611e-14,-0.000249917,-6.96154e-05,0.00162306,-2.53367e-14,5.77075e-14,-0.000577408,0,18.6784,-1.87426,119.531,-6.82142e-10,1.55366e-09,1.04425,878,110.775,0.25,-0.25,0.0735,-8.20253e-05,0.000903742,8.46611e-14,-0.000249917,-6.96154e-05,0.00162306,-2.53367e-14,5.77075e-14,-0.000577408,0,18.6784,-1.87426,119.531,-6.82142e-10,1.55366e-09,1.04425,878,0,0,0,0,0,0,0,0,0,0,0,0,0,0,0,0,0,0,0,0,0,1
stats,10,1,0.11,121.853,0.25,-0.25,0.0735,-9.02279e-05,0.000994116,9.32409e-14,-0.000274909,-7.65769e-05,0.00178536,-2.78667e-14,6.3479e-14,-0.000635148,0,20.5462,-2.06169,131.484,-7.50257e-10,1.70905e-09,1.14868,878,121.853,0.25,-0.25,0.0735,-9.02279e-05,0.000994116,9.32409e-14,-0.000274909,-7.65769e-05,0.00178536,-2.78667e-14,6.3479e-14,-0.000635148,0,20.5462,-2.06169,131.484,-7.50257e-10,1.70905e-09,1.14868,878,121.853,0.25,-0.25,0.0735,-9.02279e-05,0.000994116,9.32409e-14,-0.000274909,-7.65769e-05,0.00178536,-2.78667e-14,6.3479e-14,-0.000635148,0,20.5462,-2.06169,131.484,-7.50257e-10,1.70905e-09,1.14868,878,121.853,0.25,-0.25,0.0735,-9.02279e-05,0.000994116,9.32409e-14,-0.000274909,-7.65769e-05,0.00178536,-2.78667e-14,6.3479e-14,-0.000635148,0,20.5462,-2.06169,131.484,-7.50257e-10,1.70905e-09,1.14868,878,121.853,0.25,-0.25,0.0735,-9.02279e-05,0.000994116,9.32409e-14,-0.000274909,-7.65769e-05,0.00178536,-2.78667e-14,6.3479e-14,-0.000635148,0,20.5462,-2.06169,131.484,-7.50257e-10,1.70905e-09,1.14868,878,121.853,0.25,-0.25,0.0735,-9.02279e-05,0.000994116,9.32409e-14,-0.000274909,-7.65769e-05,0.00178536,-2.78667e-14,6.3479e-14,-0.000635148,0,20.5462,-2.06169,131.484,-7.50257e-10,1.70905e-09,1.14868,878,0,0,0,0,0,0,0,0,0,0,0,0,0,0,0,0,0,0,0,0,0,1
stats,11,1,0.12,132.93,0.25,-0.25,0.0735,-9.84304e-05,0.00108449,1.01824e-13,-0.0002999,-8.35384e-05,0.00194767,-3.0397e-14,6.925e-14,-0.000692889,0,22.414,-2.24911,143.437,-8.18381e-10,1.86442e-09,1.25311,878,132.93,0.25,-0.25,0.0735,-9.84304e-05,0.00108449,1.01824e-13,-0.0002999,-8.35384e-05,0.00194767,-3.0397e-14,6.925e-14,-0.000692889,0,22.414,-2.24911,143.437,-8.18381e-10,1.86442e-09,1.25311,878,132.93,0.25,-0.25,0.0735,-9.84304e-05,0.00108449,1.01824e-13,-0.0002999,-8.35384e-05,0.00194767,-3.0397e-14,6.925e-14,-0.000692889,0,22.414,-2.24911,143.437,-8.18381e-10,1.86442e-09,1.25311,878,132.93,0.25,-0.25,0.0735,-9.84304e-05,0.00108449,1.01824e-13,-0.0002999,-8.35384e-05,0.00194767,-3.0397e-14,6.925e-14,-0.000692889,0,22.414,-2.24911,143.437,-8.18381e-10,1.86442e-09,1.25311,878,132.93,0.25,-0.25,0.0735,-9.84304e-05,0.00108449,1.01824e-13,-0.0002999,-8.35384e-05,0.00194767,-3.0397e-14,6.925e-14,-0.000692889,0,22.414,-2.24911,143.437,-8.18381e-10,1.86442e-09,1.25311,878,132.93,0.25,-0.25,0.0735,-9.84304e-05,0.00108449,1.01824e-13,-0.0002999,-8.35384e-05,0.00194767,-3.0397e-14,6.925e-14,-0.000692889,0,22.414,-2.24911,143.437,-8.18381e-10,1.86442e-09,1.25311,878,0,0,0,0,0,0,0,0,0,0,0,0,0,0,0,0,0,0,0,0,0,1
stats,12,1,0.13,144.008,0.25,-0.25,0.0735,-0.000106633,0.00117486,1.10494e-13,-0.000324892,-9.05e-05,0.00210998,-3.29271e-14,7.50212e-14,-0.00075063,0,24.2819,-2.43654,155.39,-8.86499e-10,2.0198e-09,1.35753,878,144.008,0.25,-0.25,0.0735,-0.000106633,0.00117486,1.10494e-13,-0.000324892,-9.05e-05,0.00210998,-3.29271e-14,7.50212e-14,-0.00075063,0,24.2819,-2.43654,155.39,-8.86499e-10,2.0198e-09,1.35753,878,144.008,0.25,-0.25,0.0735,-0.000106633,0.00117486,1.10494e-13,-0.000324892,-9.05e-05,0.00210998,-3.29271e-14,7.50212e-14,-0.00075063,0,24.2819,-2.43654,155.39,-8.86499e-10,2.0198e-09,1.35753,878,144.008,0.25,-0.25,0.0735,-0.000106633,0.00117486,1.10494e-13,-0.000324892,-9.05e-05,0.00210998,-3.29271e-14,7.50212e-14,-0.00075063,0,24.2819,-2.43654,155.39,-8.86499e-10,2.0198e-09,1.35753,878,144.008,0.25,-0.25,0.0735,-0.000106633,0.00117486,1.10494e-13,-0.000324892,-9.05e-05,0.00210998,-3.29271e-14,7.50212e-14,-0.00075063,0,24.2819,-2.43654,155.39,-8.86499e-10,2.0198e-09,1.35753,878,144.008,0.25,-0.25,0.0735,-0.000106633,0.00117486,1.10494e-13,-0.000324892,-9.05e-05,0.00210998,-3.29271e-14,7.50212e-14,-0.00075063,0,24.2819,-2.43654,155.39,-8.86499e-10,2.0198e-09,1.35753,878,0,0,0,0,0,0,0,0,0,0,0,0,0,0,0,0,0,0,0,0,0,1
stats,13,1,0.14,155.086,0.25,-0.25,0.0735,-0.000114835,0.00126524,1.19101e-13,-0.000349884,-9.74615e-05,0.00227228,-3.54559e-14,8.07925e-14,-0.000808371,0,26.1497,-2.62396,167.343,-9.54583e-10,2.17518e-09,1.46196,878,155.086,0.25,-0.25,0.0735,-0.000114835,0.00126524,1.19101e-13,-0.000349884,-9.74615e-05,0.00227228,-3.54559e-14,8.07925e-14,-0.000808371,0,26.1497,-2.62396,167.343,-9.54583e-10,2.17518e-09,1.46196,878,155.086,0.25,-0.25,0.0735,-0.000114835,0.00126524,1.19101e-13,-0.000349884,-9.74615e-05,0.00227228,-3.54559e-14,8.07925e-14,-0.000808371,0,26.1497,-2.62396,167.343,-9.54583e-10,2.17518e-09,1.46196,878,155.086,0.25,-0.25,0.0735,-0.000114835,0.00126524,1.19101e-13,-0.000349884,-9.74615e-05,0.00227228,-3.54559e-14,8.07925e-14,-0.000808371,0,26.1497,-2.62396,167.343,-9.54583e-10,2.17518e-09,1.46196,878,155.086,0.25,-0.25,0.0735,-0.000114835,0.00126524,1.19101e-13,-0.000349884,-9.74615e-05,0.00227228,-3.54559e-14,8.07925e-14,-0.000808371,0,26.1497,-2.62396,167.343,-9.54583e-10,2.17518e-09,1.46196,878,155.086,0.25,-0.25,0.0735,-0.000114835,0.00126524,1.19101e-13,-0.000349884,-9.74615e-05,0.00227228,-3.54559e-14,8.07925e-14,-0.000808371,0,26.1497,-2.62396,167.343,-9.54583e-10,2.17518e-09,1.46196,878,0,0,0,0,0,0,0,0,0,0,0,0,0,0,0,0,0,0,0,0,0,1
stats,14,1,0.15,166.163,0.25,-0.25,0.0735,-0.000123038,0.00135561,1.27738e-13,-0.000374876,-0.000104423,0.00243459,-3.79856e-14,8.65639e-14,-0.000866111,0,28.0175,-2.81139,179.296,-1.02269e-09,2.33057e-09,1.56638,878,166.163,0.25,-0.25,0.0735,-0.000123038,0.00135561,1.27738e-13,-0.000374876,-0.000104423,0.00243459,-3.79856e-14,8.65639e-14,-0.000866111,0,28.0175,-2.81139,179.296,-1.02269e-09,2.33057e-09,1.56638,878,166.163,0.25,-0.25,0.0735,-0.000123038,0.00135561,1.27738e-13,-0.000374876,-0.000104423,0.00243459,-3.79856e-14,8.65639e-14,-0.000866111,0,28.0175,-2.81139,179.296,-1.02269e-09,2.33057e-09,1.56638,878,166.163,0.25,-0.25,0.0735,-0.000123038,0.00135561,1.27738e-13,-0.000374876,-0.000104423,0.00243459,-3.79856e-14,8.65639e-14,-0.000866111,0,28.0175,-2.81139,179.296,-1.02269e-09,2.33057e-09,1.56638,878,166.163,0.25,-0.25,0.0735,-0.000123038,0.00135561,1.27738e-13,-0.000374876,-0.000104423,0.00243459,-3.79856e-14,8.65639e-14,-0.000866111,0,28.0175,-2.81139,179.296,-1.02269e-09,2.33057e-09,1.56638,878,166.163,0.25,-0.25,0.0735,-0.000123038,0.00135561,1.27738e-13,-0.000374876,-0.000104423,0.00243459,-3.79856e-14,8.65639e-14,-0.000866111,0,28.0175,-2.81139,179.296,-1.02269e-09,2.33057e-09,1.56638,878,0,0,0,0,0,0,0,0,0,0,0,0,0,0,0,0,0,0,0,0,0,1
stats,15,1,0.16,177.241,0.25,-0.25,0.0735,-0.000131241,0.00144599,1.36337e-13,-0.000399867,-0.000111385,0.00259689,-4.05181e-14,9.23347e-14,-0.000923852,0,29.8854,-2.99882,191.249,-1.09087e-09,2.48593e-09,1.67081,878,177.241,0.25,-0.25,0.0735,-0.000131241,0.00144599,1.36337e-13,-0.000399867,-0.000111385,0.00259689,-4.05181e-14,9.23347e-14,-0.000923852,0,29.8854,-2.99882,191.249,-1.09087e-09,2.48593e-09,1.67081,878,177.241,0.25,-0.25,0.0735,-0.000131241,0.00144599,1.36337e-13,-0.000399867,-0.000111385,0.00259689,-4.05181e-14,9.23347e-14,-0.000923852,0,29.8854,-2.99882,191.249,-1.09087e-09,2.48593e-09,1.67081,878,177.241,0.25,-0.25,0.0735,-0.000131241,0.00144599,1.36337e-13,-0.000399867,-0.000111385,0.00259689,-4.05181e-14,9.23347e-14,-0.000923852,0,29.8854,-2.99882,191.249,-1.09087e-09,2.48593e-09,1.67081,878,177.241,0.25,-0.25,0.0735,-0.000131241,0.00144599,1.36337e-13,-0.000399867,-0.000111385,0.00259689,-4.05181e-14,9.23347e-14,-0.000923852,0,29.8854,-2.99882,191.249,-1.09087e-09,2.48593e-09,1.67081,878,177.241,0.25,-0.25,0.0735,-0.000131241,0.00144599,1.36337e-13,-0.000399867,-0.000111385,0.00259689,-4.05181e-14,9.23347e-14,-0.000923852,0,29.8854,-2.99882,191.249,-1.09087e-09,2.48593e-09,1.67081,878,0,0,0,0,0,0,0,0,0,0,0,0,0,0,0,0,0,0,0,0,0,1
stats,16,1,0.17,188.318,0.25,-0.25,0.0735,-0.000139443,0.00153636,1.45018e-13,-0.000424859,-0.000118346,0.0027592,-4.30473e-14,9.81062e-14,-0.000981593,0,31.7532,-3.18624,203.203,-1.15897e-09,2.64132e-09,1.77523,878,188.318,0.25,-0.25,0.0735,-0.000139443,0.00153636,1.45018e-13,-0.000424859,-0.000118346,0.0027592,-4.30473e-14,9.81062e-14,-0.000981593,0,31.7532,-3.18624,203.203,-1.15897e-09,2.64132e-09,1.77523,878,188.318,0.25,-0.25,0.0735,-0.000139443,0.00153636,1.45018e-13,-0.000424859,-0.000118346,0.0027592,-4.30473e-14,9.81062e-14,-0.000981593,0,31.7532,-3.18624,203.203,-1.15897e-09,2.64132e-09,1.77523,878,188.318,0.25,-0.25,0.0735,-0.000139443,0.00153636,1.45018e-13,-0.000424859,-0.000118346,0.0027592,-4.30473e-14,9.81062e-14,-0.000981593,0,31.7532,-3.18624,203.203,-1.15897e-09,2.64132e-09,1.77523,878,188.318,0.25,-0.25,0.0735,-0.000139443,0.00153636,1.45018e-13,-0.000424859,-0.000118346,0.0027592,-4.30473e-14,9.81062e-14,-0.000981593,0,31.7532,-3.18624,203.203,-1.15897e-09,2.64132e-09,1.77523,878,188.318,0.25,-0.25,0.0735,-0.000139443,0.00153636,1.45018e-13,-0.000424859,-0.000118346,0.0027592,-4.30473e-14,9.81062e-14,-0.000981593,0,31.7532,-3.18624,203.203,-1.15897e-09,2.64132e-09,1.77523,878,0,0,0,0,0,0,0,0,0,0,0,0,0,0,0,0,0,0,0,0,0,1
stats,17,1,0.18,199.396,0.25,-0.25,0.0735,-0.000147646,0.00162674,1.5364e-13,-0.000449851,-0.000125308,0.00292151,-4.55742e-14,1.03878e-13,-0.00103933,0,33.621,-3.37367,215.156,-1.227e-09,2.79671e-09,1.87966,878,199.396,0.25,-0.25,0.0735,-0.000147646,0.00162674,1.5364e-13,-0.000449851,-0.000125308,0.00292151,-4.55742e-14,1.03878e-13,-0.00103933,0,33.621,-3.37367,215.156,-1.227e-09,2.79671e-09,1.87966,878,199.396,0.25,-0.25,0.0735,-0.000147646,0.00162674,1.5364e-13,-0.000449851,-0.000125308,0.00292151,-4.55742e-14,1.03878e-13,-0.00103933,0,33.621,-3.37367,215.156,-1.227e-09,2.79671e-09,1.87966,878,199.396,0.25,-0.25,0.0735,-0.000147646,0.00162674,1.5364e-13,-0.000449851,-0.000125308,0.00292151,-4.55742e-14,1.03878e-13,-0.00103933,0,33.621,-3.37367,215.156,-1.227e-09,2.79671e-09,1.87966,878,199.396,0.25,-0.25,0.0735,-0.000147646,0.00162674,1.5364e-13,-0.000449851,-0.000125308,0.00292151,-4.55742e-14,1.03878e-13,-0.00103933,0,33.621,-3.37367,215.156,-1.227e-09,2.79671e-09,1.87966,878,199.396,0.25,-0.25,0.0735,-0.000147646,0.00162674,1.5364e-13,-0.000449851,-0.000125308,0.00292151,-4.55742e-14,1.03878e-13,-0.00103933,0,33.621,-3.37367,215.156,-1.227e-09,2.79671e-09,1.87966,878,0,0,0,0,0,0,0,0,0,0,0,0,0,0,0,0,0,0,0,0,0,1
stats,18,1,0.19,210.473,0.25,-0.25,0.0735,-0.000155848,0.00171711,1.62222e-13,-0.000474842,-0.000132269,0.00308381,-4.81055e-14,1.09649e-13,-0.00109707,0,35.4889,-3.56109,227.109,-1.29515e-09,2.95209e-09,1.98408,878,210.473,0.25,-0.25,0.0735,-0.000155848,0.00171711,1.62222e-13,-0.000474842,-0.000132269,0.00308381,-4.81055e-14,1.09649e-13,-0.00109707,0,35.4889,-3.56109,227.109,-1.29515e-09,2.95209e-09,1.98408,878,210.473,0.25,-0.25,0.0735,-0.000155848,0.00171711,1.62222e-13,-0.000474842,-0.000132269,0.00308381,-4.81055e-14,1.09649e-13,-0.00109707,0,35.4889,-3.56109,227.109,-1.29515e-09,2.95209e-09,1.98408,878,210.473,0.25,-0.25,0.0735,-0.000155848,0.00171711,1.62222e-13,-0.000474842,-0.000132269,0.00308381,-4.81055e-14,1.09649e-13,-0.00109707,0,35.4889,-3.56109,227.109,-1.29515e-09,2.95209e-09,1.98408,878,210.473,0.25,-0.25,0.0735,-0.000155848,0.00171711,1.62222e-13,-0.000474842,-0.000132269,0.00308381,-4.81055e-14,1.09649e-13,-0.00109707,0,35.4889,-3.56109,227.109,-1.29515e-09,2.95209e-09,1.98408,878,210.473,0.25,-0.25,0.0735,-0.000155848,0.00171711,1.62222e-13,-0.000474842,-0.000132269,0.00308381,-4.81055e-14,1.09649e-13,-0.00109707,0,35.4889,-3.56109,227.109,-1.29515e-09,2.95209e-09,1.98408,878,0,0,0,0,0,0,0,0,0,0,0,0,0,0,0,0,0,0,0,0,0,1
stats,19,1,0.2,221.551,0.25,-0.25,0.0735,-0.000164051,0.00180748,1.70873e-13,-0.000499834,-0.000139231,0.00324612,-5.06354e-14,1.1542e-13,-0.00115482,0,37.3567,-3.74852,239.062,-1.36326e-09,3.10746e-09,2.08851,878,221.551,0.25,-0.25,0.0735,-0.000164051,0.00180748,1.70873e-13,-0.000499834,-0.000139231,0.00324612,-5.06354e-14,1.1542e-13,-0.00115482,0,37.3567,-3.74852,239.062,-1.36326e-09,3.10746e-09,2.08851,878,221.551,0.25,-0.25,0.0735,-0.000164051,0.00180748,1.70873e-13,-0.000499834,-0.000139231,0.00324612,-5.06354e-14,1.1542e-13,-0.00115482,0,37.3567,-3.74852,239.062,-1.36326e-09,3.10746e-09,2.08851,878,221.551,0.25,-0.25,0.0735,-0.000164051,0.00180748,1.70873e-13,-0.000499834,-0.000139231,0.00324612,-5.06354e-14,1.1542e-13,-0.00115482,0,37.3567,-3.74852,239.062,-1.36326e-09,3.10746e-09,2.08851,878,221.551,0.25,-0.25,0.0735,-0.000164051,0.00180748,1.70873e-13,-0.000499834,-0.000139231,0.00324612,-5.06354e-14,1.1542e-13,-0.00115482,0,37.3567,-3.74852,239.062,-1.36326e-09,3.10746e-09,2.08851,878,221.551,0.25,-0.25,0.0735,-0.000164051,0.00180748,1.70873e-13,-0.000499834,-0.000139231,0.00324612,-5.06354e-14,1.1542e-13,-0.00115482,0,37.3567,-3.74852,239.062,-1.36326e-09,3.10746e-09,2.08851,878,0,0,0,0,0,0,0,0,0,0,0,0,0,0,0,0,0,0,0,0,0,1
stats,20,1,0.21,232.628,0.25,-0.25,0.0735,-0.000172253,0.00189786,1.79495e-13,-0.000524826,-0.000146192,0.00340842,-5.31647e-14,1.21191e-13,-0.00121256,0,39.2246,-3.93595,251.015,-1.43136e-09,3.26284e-09,2.19294,878,232.628,0.25,-0.25,0.0735,-0.000172253,0.00189786,1.79495e-13,-0.000524826,-0.000146192,0.00340842,-5.31647e-14,1.21191e-13,-0.00121256,0,39.2246,-3.93595,251.015,-1.43136e-09,3.26284e-09,2.19294,878,232.628,0.25,-0.25,0.0735,-0.000172253,0.00189786,1.79495e-13,-0.000524826,-0.000146192,0.00340842,-5.31647e-14,1.21191e-13,-0.00121256,0,39.2246,-3.93595,251.015,-1.43136e-09,3.26284e-09,2.19294,878,232.628,0.25,-0.25,0.0735,-0.000172253,0.00189786,1.79495e-13,-0.000524826,-0.000146192,0.00340842,-5.31647e-14,1.21191e-13,-0.00121256,0,39.2246,-3.93595,251.015,-1.43136e-09,3.26284e-09,2.19294,878,232.628,0.25,-0.25,0.0735,-0.000172253,0.00189786,1.79495e-13,-0.000524826,-0.000146192,0.00340842,-5.31647e-14,1.21191e-13,-0.00121256,0,39.2246,-3.93595,251.015,-1.43136e-09,3.26284e-09,2.19294,878,232.628,0.25,-0.25,0.0735,-0.000172253,0.00189786,1.79495e-13,-0.000524826,-0.000146192,0.00340842,-5.31647e-14,1.21191e-13,-0.00121256,0,39.2246,-3.93595,251.015,-1.43136e-09,3.26284e-09,2.19294,878,0,0,0,0,0,0,0,0,0,0,0,0,0,0,0,0,0,0,0,0,0,1
stats,21,1,0.22,243.706,0.25,-0.25,0.0735,-0.000180456,0.00198823,1.88134e-13,-0.000549818,-0.000153154,0.00357073,-5.5694e-14,1.26963e-13,-0.0012703,0,41.0924,-4.12337,262.968,-1.49945e-09,3.41823e-09,2.29736,878,243.706,0.25,-0.25,0.0735,-0.000180456,0.00198823,1.88134e-13,-0.000549818,-0.000153154,0.00357073,-5.5694e-14,1.26963e-13,-0.0012703,0,41.0924,-4.12337,262.968,-1.49945e-09,3.41823e-09,2.29736,878,243.706,0.25,-0.25,0.0735,-0.000180456,0.00198823,1.88134e-13,-0.000549818,-0.000153154,0.00357073,-5.5694e-14,1.26963e-13,-0.0012703,0,41.0924,-4.12337,262.968,-1.49945e-09,3.41823e-09,2.29736,878,243.706,0.25,-0.25,0.0735,-0.000180456,0.00198823,1.88134e-13,-0.000549818,-0.000153154,0.00357073,-5.5694e-14,1.26963e-13,-0.0012703,0,41.0924,-4.12337,262.968,-1.49945e-09,3.41823e-09,2.29736,878,243.706,0.25,-0.25,0.0735,-0.000180456,0.00198823,1.88134e-13,-0.000549818,-0.000153154,0.00357073,-5.5694e-14,1.26963e-13,-0.0012703,0,41.0924,-4.12337,262.968,-1.49945e-09,3.41823e-09,2.29736,878,243.706,0.25,-0.25,0.0735,-0.000180456,0.00198823,1.88134e-13,-0.000549818,-0.000153154,0.00357073,-5.5694e-14,1.26963e-13,-0.0012703,0,41.0924,-4.12337,262.968,-1.49945e-09,3.41823e-09,2.29736,878,0,0,0,0,0,0,0,0,0,0,0,0,0,0,0,0,0,0,0,0,0,1
stats,22,1,0.23,254.783,0.25,-0.25,0.0735,-0.000188658,0.00207861,1.96735e-13,-0.000574809,-0.000160115,0.00373304,-5.82225e-14,1.32734e-13,-0.00132804,0,42.9602,-4.3108,274.921,-1.56753e-09,3.57361e-09,2.40179,878,254.783,0.25,-0.25,0.0735,-0.000188658,0.00207861,1.96735e-13,-0.000574809,-0.000160115,0.00373304,-5.82225e-14,1.32734e-13,-0.00132804,0,42.9602,-4.3108,274.921,-1.56753e-09,3.57361e-09,2.40179,878,254.783,0.25,-0.25,0.0735,-0.000188658,0.00207861,1.96735e-13,-0.000574809,-0.000160115,0.00373304,-5.82225e-14,1.32734e-13,-0.00132804,0,42.9602,-4.3108,274.921,-1.56753e-09,3.57361e-09,2.40179,878,254.783,0.25,-0.25,0.0735,-0.000188658,0.00207861,1.96735e-13,-0.000574809,-0.000160115,0.00373304,-5.82225e-14,1.32734e-13,-0.00132804,0,42.9602,-4.3108,274.921,-1.56753e-09,3.57361e-09,2.40179,878,254.783,0.25,-0.25,0.0735,-0.000188658,0.00207861,1.96735e-13,-0.000574809,-0.000160115,0.00373304,-5.82225e-14,1.32734e-13,-0.00132804,0,42.9602,-4.3108,274.921,-1.56753e-09,3.57361e-09,2.40179,878,254.783,0.25,-0.25,0.0735,-0.000188658,0.00207861,1.96735e-13,-0.000574809,-0.000160115,0.00373304,-5.82225e-14,1.32734e-13,-0.00132804,0,42.9602,-4.3108,274.921,-1.56753e-09,3.57361e-09,2.40179,878,0,0,0,0,0,0,0,0,0,0,0,0,0,0,0,0,0,0,0,0,0,1
stats,23,1,0.24,265.861,0.25,-0.25,0.0735,-0.000196861,0.00216898,2.05355e-13,-0.000599801,-0.000167077,0.00389534,-6.07527e-14,1.38505e-13,-0.00138578,0,44.8281,-4.49822,286.874,-1.63565e-09,3.72898e-09,2.50621,878,265.861,0.25,-0.25,0.0735,-0.000196861,0.00216898,2.05355e-13,-0.000599801,-0.000167077,0.00389534,-6.07527e-14,1.38505e-13,-0.00138578,0,44.8281,-4.49822,286.874,-1.63565e-09,3.72898e-09,2.50621,878,265.861,0.25,-0.25,0.0735,-0.000196861,0.00216898,2.05355e-13,-0.000599801,-0.000167077,0.00389534,-6.07527e-14,1.38505e-13,-0.00138578,0,44.8281,-4.49822,286.874,-1.63565e-09,3.72898e-09,2.50621,878,265.861,0.25,-0.25,0.0735,-0.000196861,0.00216898,2.05355e-13,-0.000599801,-0.000167077,0.00389534,-6.07527e-14,1.38505e-13,-0.00138578,0,44.8281,-4.49822,286.874,-1.63565e-09,3.72898e-09,2.50621,878,265.861,0.25,-0.25,0.0735,-0.000196861,0.00216898,2.05355e-13,-0.000599801,-0.000167077,0.00389534,-6.07527e-14,1.38505e-13,-0.00138578,0,44.8281,-4.49822,286.874,-1.63565e-09,3.72898e-09,2.50621,878,265.861,0.25,-0.25,0.0735,-0.000196861,0.00216898,2.05355e-13,-0.000599801,-0.000167077,0.00389534,-6.07527e-14,1.38505e-13,-0.00138578,0,44.8281,-4.49822,286.874,-1.63565e-09,3.72898e-09,2.50621,878,0,0,0,0,0,0,0,0,0,0,0,0,0,0,0,0,0,0,0,0,0,1
stats,24,1,0.25,276.938,0.25,-0.25,0.0735,-0.000205063,0.00225935,2.13932e-13,-0.000624793,-0.000174038,0.00405765,-6.32822e-14,1.44277e-13,-0.00144352,0,46.6959,-4.68565,298.827,-1.70375e-09,3.88437e-09,2.61064,878,276.938,0.25,-0.25,0.0735,-0.000205063,0.00225935,2.13932e-13,-0.000624793,-0.000174038,0.00405765,-6.32822e-14,1.44277e-13,-0.00144352,0,46.6959,-4.68565,298.827,-1.70375e-09,3.88437e-09,2.61064,878,276.938,0.25,-0.25,0.0735,-0.000205063,0.00225935,2.13932e-13,-0.000624793,-0.000174038,0.00405765,-6.32822e-14,1.44277e-13,-0.00144352,0,46.6959,-4.68565,298.827,-1.70375e-09,3.88437e-09,2.61064,878,276.938,0.25,-0.25,0.0735,-0.000205063,0.00225935,2.13932e-13,-0.000624793,-0.000174038,0.00405765,-6.32822e-14,1.44277e-13,-0.00144352,0,46.6959,-4.68565,298.827,-1.70375e-09,3.88437e-09,2.61064,878,276.938,0.25,-0.25,0.0735,-0.000205063,0.00225935,2.13932e-13,-0.000624793,-0.000174038,0.00405765,-6.32822e-14,1.44277e-13,-0.00144352,0,46.6959,-4.68565,298.827,-1.70375e-09,3.88437e-09,2.61064,878,276.938,0.25,-0.25,0.0735,-0.000205063,0.00225935,2.13932e-13,-0.000624793,-0.000174038,0.00405765,-6.32822e-14,1.44277e-13,-0.00144352,0,46.6959,-4.68565,298.827,-1.70375e-09,3.88437e-09,2.61064,878,0,0,0,0,0,0,0,0,0,0,0,0,0,0,0,0,0,0,0,0,0,1
stats,25,1,0.26,288.016,0.25,-0.25,0.0735,-0.000213266,0.00234973,2.22504e-13,-0.000649784,-0.000181,0.00421995,-6.58124e-14,1.50048e-13,-0.00150126,0,48.5637,-4.87308,310.78,-1.77187e-09,4.03975e-09,2.71506,878,288.016,0.25,-0.25,0.0735,-0.000213266,0.00234973,2.22504e-13,-0.000649784,-0.000181,0.00421995,-6.58124e-14,1.50048e-13,-0.00150126,0,48.5637,-4.87308,310.78,-1.77187e-09,4.03975e-09,2.71506,878,288.016,0.25,-0.25,0.0735,-0.000213266,0.00234973,2.22504e-13,-0.000649784,-0.000181,0.00421995,-6.58124e-14,1.50048e-13,-0.00150126,0,48.5637,-4.87308,310.78,-1.77187e-09,4.03975e-09,2.71506,878,288.016,0.25,-0.25,0.0735,-0.000213266,0.00234973,2.22504e-13,-0.000649784,-0.000181,0.00421995,-6.58124e-14,1.50048e-13,-0.00150126,0,48.5637,-4.87308,310.78,-1.77187e-09,4.03975e-09,2.71506,878,288.016,0.25,-0.25,0.0735,-0.000213266,0.00234973,2.22504e-13,-0.000649784,-0.000181,0.00421995,-6.58124e-14,1.50048e-13,-0.00150126,0,48.5637,-4.87308,310.78,-1.77187e-09,4.03975e-09,2.71506,878,288.016,0.25,-0.25,0.0735,-0.000213266,0.00234973,2.22504e-13,-0.000649784,-0.000181,0.00421995,-6.58124e-14,1.50048e-13,-0.00150126,0,48.5637,-4.87308,310.78,-1.77187e-09,4.03975e-09,2.71506,878,0,0,0,0,0,0,0,0,0,0,0,0,0,0,0,0,0,0,0,0,0,1
stats,26,1,0.27,299.094,0.25,-0.25,0.0735,-0.000221468,0.0024401,2.31125e-13,-0.000674776,-0.000187961,0.00438226,-6.83425e-14,1.55819e-13,-0.001559,0,50.4316,-5.0605,322.733,-1.83999e-09,4.19513e-09,2.81949,878,299.094,0.25,-0.25,0.0735,-0.000221468,0.0024401,2.31125e-13,-0.000674776,-0.000187961,0.00438226,-6.83425e-14,1.55819e-13,-0.001559,0,50.4316,-5.0605,322.733,-1.83999e-09,4.19513e-09,2.81949,878,299.094,0.25,-0.25,0.0735,-0.000221468,0.0024401,2.31125e-13,-0.000674776,-0.000187961,0.00438226,-6.83425e-14,1.55819e-13,-0.001559,0,50.4316,-5.0605,322.733,-1.83999e-09,4.19513e-09,2.81949,878,299.094,0.25,-0.25,0.0735,-0.000221468,0.0024401,2.31125e-13,-0.000674776,-0.000187961,0.00438226,-6.83425e-14,1.55819e-13,-0.001559,0,50.4316,-5.0605,322.733,-1.83999e-09,4.19513e-09,2.81949,878,299.094,0.25,-0.25,0.0735,-0.000221468,0.0024401,2.31125e-13,-0.000674776,-0.000187961,0.00438226,-6.83425e-14,1.55819e-13,-0.001559,0,50.4316,-5.0605,322.733,-1.83999e-09,4.19513e-09,2.81949,878,299.094,0.25,-0.25,0.0735,-0.000221468,0.0024401,2.31125e-13,-0.000674776,-0.000187961,0.00438226,-6.83425e-14,1.55819e-13,-0.001559,0,50.4316,-5.0605,322.733,-1.83999e-09,4.19513e-09,2.81949,878,0,0,0,0,0,0,0,0,0,0,0,0,0,0,0,0,0,0,0,0,0,1
stats,27,1,0.28,310.171,0.25,-0.25,0.0735,-0.000229671,0.00253048,2.39764e-13,-0.000699768,-0.000194923,0.00454457,-7.08734e-14,1.6159e-13,-0.00161674,0,52.2994,-5.24793,334.687,-1.90813e-09,4.3505e-09,2.92391,878,310.171,0.25,-0.25,0.0735,-0.000229671,0.00253048,2.39764e-13,-0.000699768,-0.000194923,0.00454457,-7.08734e-14,1.6159e-13,-0.00161674,0,52.2994,-5.24793,334.687,-1.90813e-09,4.3505e-09,2.92391,878,310.171,0.25,-0.25,0.0735,-0.000229671,0.00253048,2.39764e-13,-0.000699768,-0.000194923,0.00454457,-7.08734e-14,1.6159e-13,-0.00161674,0,52.2994,-5.24793,334.687,-1.90813e-09,4.3505e-09,2.92391,878,310.171,0.25,-0.25,0.0735,-0.000229671,0.00253048,2.39764e-13,-0.000699768,-0.000194923,0.00454457,-7.08734e-14,1.6159e-13,-0.00161674,0,52.2994,-5.24793,334.687,-1.90813e-09,4.3505e-09,2.92391,878,310.171,0.25,-0.25,0.0735,-0.000229671,0.00253048,2.39764e-13,-0.000699768,-0.000194923,0.00454457,-7.08734e-14,1.6159e-13,-0.00161674,0,52.2994,-5.24793,334.687,-1.90813e-09,4.3505e-09,2.92391,878,310.171,0.25,-0.25,0.0735,-0.000229671,0.00253048,2.39764e-13,-0.000699768,-0.000194923,0.00454457,-7.08734e-14,1.6159e-13,-0.00161674,0,52.2994,-5.24793,334.687,-1.90813e-09,4.3505e-09,2.92391,878,0,0,0,0,0,0,0,0,0,0,0,0,0,0,0,0,0,0,0,0,0,1
stats,28,1,0.29,321.249,0.25,-0.25,0.0735,-0.000237873,0.00262085,2.48431e-13,-0.000724759,-0.000201885,0.00470687,-7.34019e-14,1.67362e-13,-0.00167448,0,54.1672,-5.43535,346.64,-1.9762e-09,4.50589e-09,3.02834,878,321.249,0.25,-0.25,0.0735,-0.000237873,0.00262085,2.48431e-13,-0.000724759,-0.000201885,0.00470687,-7.34019e-14,1.67362e-13,-0.00167448,0,54.1672,-5.43535,346.64,-1.9762e-09,4.50589e-09,3.02834,878,321.249,0.25,-0.25,0.0735,-0.000237873,0.00262085,2.48431e-13,-0.000724759,-0.000201885,0.00470687,-7.34019e-14,1.67362e-13,-0.00167448,0,54.1672,-5.43535,346.64,-1.9762e-09,4.50589e-09,3.02834,878,321.249,0.25,-0.25,0.0735,-0.000237873,0.00262085,2.48431e-13,-0.000724759,-0.000201885,0.00470687,-7.34019e-14,1.67362e-13,-0.00167448,0,54.1672,-5.43535,346.64,-1.9762e-09,4.50589e-09,3.02834,878,321.249,0.25,-0.25,0.0735,-0.000237873,0.00262085,2.48431e-13,-0.000724759,-0.000201885,0.00470687,-7.34019e-14,1.67362e-13,-0.00167448,0,54.1672,-5.43535,346.64,-1.9762e-09,4.50589e-09,3.02834,878,321.249,0.25,-0.25,0.0735,-0.000237873,0.00262085,2.48431e-13,-0.000724759,-0.000201885,0.00470687,-7.34019e-14,1.67362e-13,-0.00167448,0,54.1672,-5.43535,346.64,-1.9762e-09,4.50589e-09,3.02834,878,0,0,0,0,0,0,0,0,0,0,0,0,0,0,0,0,0,0,0,0,0,1
stats,29,1,0.3,332.326,0.25,-0.25,0.0735,-0.000246076,0.00271123,2.57025e-13,-0.000749751,-0.000208846,0.00486918,-7.59322e-14,1.73133e-13,-0.00173222,0,56.0351,-5.62278,358.593,-2.04433e-09,4.66127e-09,3.13276,878,332.326,0.25,-0.25,0.0735,-0.000246076,0.00271123,2.57025e-13,-0.000749751,-0.000208846,0.00486918,-7.59322e-14,1.73133e-13,-0.00173222,0,56.0351,-5.62278,358.593,-2.04433e-09,4.66127e-09,3.13276,878,332.326,0.25,-0.25,0.0735,-0.000246076,0.00271123,2.57025e-13,-0.000749751,-0.000208846,0.00486918,-7.59322e-14,1.73133e-13,-0.00173222,0,56.0351,-5.62278,358.593,-2.04433e-09,4.66127e-09,3.13276,878,332.326,0.25,-0.25,0.0735,-0.000246076,0.00271123,2.57025e-13,-0.000749751,-0.000208846,0.00486918,-7.59322e-14,1.73133e-13,-0.00173222,0,56.0351,-5.62278,358.593,-2.04433e-09,4.66127e-09,3.13276,878,332.326,0.25,-0.25,0.0735,-0.000246076,0.00271123,2.57025e-13,-0.000749751,-0.000208846,0.00486918,-7.59322e-14,1.73133e-13,-0.00173222,0,56.0351,-5.62278,358.593,-2.04433e-09,4.66127e-09,3.13276,878,332.326,0.25,-0.25,0.0735,-0.000246076,0.00271123,2.57025e-13,-0.000749751,-0.000208846,0.00486918,-7.59322e-14,1.73133e-13,-0.00173222,0,56.0351,-5.62278,358.593,-2.04433e-09,4.66127e-09,3.13276,878,0,0,0,0,0,0,0,0,0,0,0,0,0,0,0,0,0,0,0,0,0,1
stats,30,1,0.31,343.404,0.25,-0.25,0.0735,-0.000254279,0.0028016,2.65636e-13,-0.000774743,-0.000215808,0.00503148,-7.84614e-14,1.78904e-13,-0.00178996,0,57.9029,-5.81021,370.546,-2.11242e-09,4.81665e-09,3.23719,878,343.404,0.25,-0.25,0.0735,-0.000254279,0.0028016,2.65636e-13,-0.000774743,-0.000215808,0.00503148,-7.84614e-14,1.78904e-13,-0.00178996,0,57.9029,-5.81021,370.546,-2.11242e-09,4.81665e-09,3.23719,878,343.404,0.25,-0.25,0.0735,-0.000254279,0.0028016,2.65636e-13,-0.000774743,-0.000215808,0.00503148,-7.84614e-14,1.78904e-13,-0.00178996,0,57.9029,-5.81021,370.546,-2.11242e-09,4.81665e-09,3.23719,878,343.404,0.25,-0.25,0.0735,-0.000254279,0.0028016,2.65636e-13,-0.000774743,-0.000215808,0.00503148,-7.84614e-14,1.78904e-13,-0.00178996,0,57.9029,-5.81021,370.546,-2.11242e-09,4.81665e-09,3.23719,878,343.404,0.25,-0.25,0.0735,-0.000254279,0.0028016,2.65636e-13,-0.000774743,-0.000215808,0.00503148,-7.84614e-14,1.78904e-13,-0.00178996,0,57.9029,-5.81021,370.546,-2.11242e-09,4.81665e-09,3.23719,878,343.404,0.25,-0.25,0.0735,-0.000254279,0.0028016,2.65636e-13,-0.000774743,-0.000215808,0.00503148,-7.84614e-14,1.78904e-13,-0.00178996,0,57.9029,-5.81021,370.546,-2.11242e-09,4.81665e-09,3.23719,878,0,0,0,0,0,0,0,0,0,0,0,0,0,0,0,0,0,0,0,0,0,1
stats,31,1,0.32,354.481,0.25,-0.25,0.0735,-0.000262481,0.00289197,2.74266e-13,-0.000799735,-0.000222769,0.00519379,-8.09918e-14,1.84675e-13,-0.0018477,0,59.7707,-5.99763,382.499,-2.18055e-09,4.97203e-09,3.34162,878,354.481,0.25,-0.25,0.0735,-0.000262481,0.00289197,2.74266e-13,-0.000799735,-0.000222769,0.00519379,-8.09918e-14,1.84675e-13,-0.0018477,0,59.7707,-5.99763,382.499,-2.18055e-09,4.97203e-09,3.34162,878,354.481,0.25,-0.25,0.0735,-0.000262481,0.00289197,2.74266e-13,-0.000799735,-0.000222769,0.00519379,-8.09918e-14,1.84675e-13,-0.0018477,0,59.7707,-5.99763,382.499,-2.18055e-09,4.97203e-09,3.34162,878,354.481,0.25,-0.25,0.0735,-0.000262481,0.00289197,2.74266e-13,-0.000799735,-0.000222769,0.00519379,-8.09918e-14,1.84675e-13,-0.0018477,0,59.7707,-5.99763,382.499,-2.18055e-09,4.97203e-09,3.34162,878,354.481,0.25,-0.25,0.0735,-0.000262481,0.00289197,2.74266e-13,-0.000799735,-0.000222769,0.00519379,-8.09918e-14,1.84675e-13,-0.0018477,0,59.7707,-5.99763,382.499,-2.18055e-09,4.97203e-09,3.34162,878,354.481,0.25,-0.25,0.0735,-0.000262481,0.00289197,2.74266e-13,-0.000799735,-0.000222769,0.00519379,-8.09918e-14,1.84675e-13,-0.0018477,0,59.7707,-5.99763,382.499,-2.18055e-09,4.97203e-09,3.34162,878,0,0,0,0,0,0,0,0,0,0,0,0,0,0,0,0,0,0,0,0,0,1
stats,32,1,0.33,365.559,0.25,-0.25,0.0735,-0.000270684,0.00298235,2.4975e-14,-0.000824726,-0.000229731,0.00535609,-8.35227e-14,1.90446e-13,-0.00190544,0,61.6386,-6.18506,394.452,-2.24869e-09,5.1274e-09,3.44604,878,365.559,0.25,-0.25,0.0735,-0.000270684,0.00298235,2.4975e-14,-0.000824726,-0.000229731,0.00535609,-8.35227e-14,1.90446e-13,-0.00190544,0,61.6386,-6.18506,394.452,-2.24869e-09,5.1274e-09,3.44604,878,365.559,0.25,-0.25,0.0735,-0.000270684,0.00298235,2.4975e-14,-0.000824726,-0.000229731,0.00535609,-8.35227e-14,1.90446e-13,-0.00190544,0,61.6386,-6.18506,394.452,-2.24869e-09,5.1274e-09,3.44604,878,365.559,0.25,-0.25,0.0735,-0.000270684,0.00298235,2.4975e-14,-0.000824726,-0.000229731,0.00535609,-8.35227e-14,1.90446e-13,-0.00190544,0,61.6386,-6.18506,394.452,-2.24869e-09,5.1274e-09,3.44604,878,365.559,0.25,-0.25,0.0735,-0.000270684,0.00298235,2.4975e-14,-0.000824726,-0.000229731,0.00535609,-8.35227e-14,1.90446e-13,-0.00190544,0,61.6386,-6.18506,394.452,-2.24869e-09,5.1274e-09,3.44604,878,365.559,0.25,-0.25,0.0735,-0.000270684,0.00298235,2.4975e-14,-0.000824726,-0.000229731,0.00535609,-8.35227e-14,1.90446e-13,-0.00190544,0,61.6386,-6.18506,394.452,-2.24869e-09,5.1274e-09,3.44604,878,0,0,0,0,0,0,0,0,0,0,0,0,0,0,0,0,0,0,0,0,0,1
stats,33,1,0.34,376.635,0.25,-0.25,0.0735,-0.000279055,0.00307273,4.12053e-09,-0.000849743,-0.000236712,0.0055185,3.60122e-10,6.74666e-11,-0.00196323,1.29237e-07,63.5085,-6.37216,406.406,1.41691e-05,2.37676e-06,3.55268,878,376.635,0.25,-0.25,0.0735,-0.000279055,0.00307273,4.12053e-09,-0.000849743,-0.000236712,0.0055185,3.60122e-10,6.74666e-11,-0.00196323,1.29237e-07,63.5085,-6.37216,406.406,1.41691e-05,2.37676e-06,3.55268,878,376.635,0.25,-0.25,0.0735,-0.000279055,0.00307273,4.12053e-09,-0.000849743,-0.000236712,0.0055185,3.60122e-10,6.74666e-11,-0.00196323,1.29237e-07,63.5085,-6.37216,406.406,1.41691e-05,2.37676e-06,3.55268,878,376.635,0.25,-0.25,0.0735,-0.000279055,0.00307273,4.12053e-09,-0.000849743,-0.000236712,0.0055185,3.60122e-10,6.74666e-11,-0.00196323,1.29237e-07,63.5085,-6.37216,406.406,1.41691e-05,2.37676e-06,3.55268,878,376.635,0.25,-0.25,0.0735,-0.000279055,0.00307273,4.12053e-09,-0.000849743,-0.000236712,0.0055185,3.60122e-10,6.74666e-11,-0.00196323,1.29237e-07,63.5085,-6.37216,406.406,1.41691e-05,2.37676e-06,3.55268,878,376.635,0.25,-0.25,0.0735,-0.000279055,0.00307273,4.12053e-09,-0.000849743,-0.000236712,0.0055185,3.60122e-10,6.74666e-11,-0.00196323,1.29237e-07,63.5085,-6.37216,406.406,1.41691e-05,2.37676e-06,3.55268,878,0,0,0,0,0,0,0,0,0,0,0,0,0,0,0,0,0,0,0,0,0,1
stats,34,1,0.35,385.729,0.25,-0.25,0.0735,-0.000288016,0.00316452,-5.83835e-11,-0.000879457,-0.000240863,0.00569112,-3.31547e-08,1.4143e-08,-0.00203058,4.44348e-05,65.7517,-6.29658,416.806,-0.000759993,0.000459889,4.13227,878,385.729,0.25,-0.25,0.0735,-0.000288016,0.00316452,-5.83835e-11,-0.000879457,-0.000240863,0.00569112,-3.31547e-08,1.4143e-08,-0.00203058,4.44348e-05,65.7517,-6.29658,416.806,-0.000759993,0.000459889,4.13227,878,385.729,0.25,-0.25,0.0735,-0.000288016,0.00316452,-5.83835e-11,-0.000879457,-0.000240863,0.00569112,-3.31547e-08,1.4143e-08,-0.00203058,4.44348e-05,65.7517,-6.29658,416.806,-0.000759993,0.000459889,4.13227,878,385.729,0.25,-0.25,0.0735,-0.000288016,0.00316452,-5.83835e-11,-0.000879457,-0.000240863,0.00569112,-3.31547e-08,1.4143e-08,-0.00203058,4.44348e-05,65.7517,-6.29658,416.806,-0.000759993,0.000459889,4.13227,878,385.729,0.25,-0.25,0.0735,-0.000288016,0.00316452,-5.83835e-11,-0.000879457,-0.000240863,0.00569112,-3.31547e-08,1.4143e-08,-0.00203058,4.44348e-05,65.7517,-6.29658,416.806,-0.000759993,0.000459889,4.13227,878,385.729,0.25,-0.25,0.0735,-0.000288016,0.00316452,-5.83835e-11,-0.000879457,-0.000240863,0.00569112,-3.31547e-08,1.4143e-08,-0.00203058,4.44348e-05,65.7517,-6.29658,416.806,-0.000759993,0.000459889,4.13227,878,0,0,0,0,0,0,0,0,0,0,0,0,0,0,0,0,0,0,0,0,0,1
stats,35,1,0.36,393.781,0.25,-0.25,0.0735,-0.000297022,0.00325638,2.52596e-09,-0.000910491,-0.000246112,0.00586869,-4.87899e-08,3.29781e-08,-0.00210391,0.000112321,68.269,-6.46351,426.35,-0.00103549,0.000455231,4.88155,878,393.781,0.25,-0.25,0.0735,-0.000297022,0.00325638,2.52596e-09,-0.000910491,-0.000246112,0.00586869,-4.87899e-08,3.29781e-08,-0.00210391,0.000112321,68.269,-6.46351,426.35,-0.00103549,0.000455231,4.88155,878,393.781,0.25,-0.25,0.0735,-0.000297022,0.00325638,2.52596e-09,-0.000910491,-0.000246112,0.00586869,-4.87899e-08,3.29781e-08,-0.00210391,0.000112321,68.269,-6.46351,426.35,-0.00103549,0.000455231,4.88155,878,393.781,0.25,-0.25,0.0735,-0.000297022,0.00325638,2.52596e-09,-0.000910491,-0.000246112,0.00586869,-4.87899e-08,3.29781e-08,-0.00210391,0.000112321,68.269,-6.46351,426.35,-0.00103549,0.000455231,4.88155,878,393.781,0.25,-0.25,0.0735,-0.000297022,0.00325638,2.52596e-09,-0.000910491,-0.000246112,0.00586869,-4.87899e-08,3.29781e-08,-0.00210391,0.000112321,68.269,-6.46351,426.35,-0.00103549,0.000455231,4.88155,878,393.781,0.25,-0.25,0.0735,-0.000297022,0.00325638,2.52596e-09,-0.000910491,-0.000246112,0.00586869,-4.87899e-08,3.29781e-08,-0.00210391,0.000112321,68.269,-6.46351,426.35,-0.00103549,0.000455231,4.88155,878,0,0,0,0,0,0,0,0,0,0,0,0,0,0,0,0,0,0,0,0,0,1
stats,36,1,0.37,401.925,0.25,-0.25,0.0735,-0.000306015,0.00334766,-6.02746e-09,-0.000943129,-0.000252447,0.00605294,-1.02357e-08,1.70328e-08,-0.002185,0.000188285,70.7432,-6.57004,435.78,-0.000220551,4.6929e-05,5.31918,878,401.925,0.25,-0.25,0.0735,-0.000306015,0.00334766,-6.02746e-09,-0.000943129,-0.000252447,0.00605294,-1.02357e-08,1.70328e-08,-0.002185,0.000188285,70.7432,-6.57004,435.78,-0.000220551,4.6929e-05,5.31918,878,401.925,0.25,-0.25,0.0735,-0.000306015,0.00334766,-6.02746e-09,-0.000943129,-0.000252447,0.00605294,-1.02357e-08,1.70328e-08,-0.002185,0.000188285,70.7432,-6.57004,435.78,-0.000220551,4.6929e-05,5.31918,878,401.925,0.25,-0.25,0.0735,-0.000306015,0.00334766,-6.02746e-09,-0.000943129,-0.000252447,0.00605294,-1.02357e-08,1.70328e-08,-0.002185,0.000188285,70.7432,-6.57004,435.78,-0.000220551,4.6929e-05,5.31918,878,401.925,0.25,-0.25,0.0735,-0.000306015,0.00334766,-6.02746e-09,-0.000943129,-0.000252447,0.00605294,-1.02357e-08,1.70328e-08,-0.002185,0.000188285,70.7432,-6.57004,435.78,-0.000220551,4.6929e-05,5.31918,878,401.925,0.25,-0.25,0.0735,-0.000306015,0.00334766,-6.02746e-09,-0.000943129,-0.000252447,0.00605294,-1.02357e-08,1.70328e-08,-0.002185,0.000188285,70.7432,-6.57004,435.78,-0.000220551,4.6929e-05,5.31918,878,0,0,0,0,0,0,0,0,0,0,0,0,0,0,0,0,0,0,0,0,0,1
stats,37,1,0.38,409.862,0.25,-0.25,0.0735,-0.00031502,0.0034387,-1.37753e-08,-0.000977238,-0.000258862,0.00624234,-6.63865e-09,2.03914e-08,-0.00227058,0.00027418,73.2837,-6.65497,445.016,-7.53661e-05,5.36145e-05,5.74198,878,409.862,0.25,-0.25,0.0735,-0.00031502,0.0034387,-1.37753e-08,-0.000977238,-0.000258862,0.00624234,-6.63865e-09,2.03914e-08,-0.00227058,0.00027418,73.2837,-6.65497,445.016,-7.53661e-05,5.36145e-05,5.74198,878,409.862,0.25,-0.25,0.0735,-0.00031502,0.0034387,-1.37753e-08,-0.000977238,-0.000258862,0.00624234,-6.63865e-09,2.03914e-08,-0.00227058,0.00027418,73.2837,-6.65497,445.016,-7.53661e-05,5.36145e-05,5.74198,878,409.862,0.25,-0.25,0.0735,-0.00031502,0.0034387,-1.37753e-08,-0.000977238,-0.000258862,0.00624234,-6.63865e-09,2.03914e-08,-0.00227058,0.00027418,73.2837,-6.65497,445.016,-7.53661e-05,5.36145e-05,5.74198,878,409.862,0.25,-0.25,0.0735,-0.00031502,0.0034387,-1.37753e-08,-0.000977238,-0.000258862,0.00624234,-6.63865e-09,2.03914e-08,-0.00227058,0.00027418,73.2837,-6.65497,445.016,-7.53661e-05,5.36145e-05,5.74198,878,409.862,0.25,-0.25,0.0735,-0.00031502,0.0034387,-1.37753e-08,-0.000977238,-0.000258862,0.00624234,-6.63865e-09,2.03914e-08,-0.00227058,0.00027418,73.2837,-6.65497,445.016,-7.53661e-05,5.36145e-05,5.74198,878,0,0,0,0,0,0,0,0,0,0,0,0,0,0,0,0,0,0,0,0,0,1
stats,38,1,0.39,417.494,0.25,-0.25,0.0735,-0.000324395,0.00353006,-3.16968e-09,-0.00101233,-0.000263303,0.00643349,-2.26886e-08,2.6904e-08,-0.00235812,0.000367365,75.8522,-6.67263,453.979,-0.000468676,0.000163773,6.20216,878,417.494,0.25,-0.25,0.0735,-0.000324395,0.00353006,-3.16968e-09,-0.00101233,-0.000263303,0.00643349,-2.26886e-08,2.6904e-08,-0.00235812,0.000367365,75.8522,-6.67263,453.979,-0.000468676,0.000163773,6.20216,878,417.494,0.25,-0.25,0.0735,-0.000324395,0.00353006,-3.16968e-09,-0.00101233,-0.000263303,0.00643349,-2.26886e-08,2.6904e-08,-0.00235812,0.000367365,75.8522,-6.67263,453.979,-0.000468676,0.000163773,6.20216,878,417.494,0.25,-0.25,0.0735,-0.000324395,0.00353006,-3.16968e-09,-0.00101233,-0.000263303,0.00643349,-2.26886e-08,2.6904e-08,-0.00235812,0.000367365,75.8522,-6.67263,453.979,-0.000468676,0.000163773,6.20216,878,417.494,0.25,-0.25,0.0735,-0.000324395,0.00353006,-3.16968e-09,-0.00101233,-0.000263303,0.00643349,-2.26886e-08,2.6904e-08,-0.00235812,0.000367365,75.8522,-6.67263,453.979,-0.000468676,0.000163773,6.20216,878,417.494,0.25,-0.25,0.0735,-0.000324395,0.00353006,-3.16968e-09,-0.00101233,-0.000263303,0.00643349,-2.26886e-08,2.6904e-08,-0.00235812,0.000367365,75.8522,-6.67263,453.979,-0.000468676,0.000163773,6.20216,878,0,0,0,0,0,0,0,0,0,0,0,0,0,0,0,0,0,0,0,0,0,1
stats,39,1,0.4,424.766,0.25,-0.25,0.0735,-0.000334072,0.00362189,-1.88875e-08,-0.00104875,-0.000265622,0.00662702,-3.72146e-08,3.67487e-08,-0.00244763,0.000469273,78.4656,-6.62683,462.65,-0.00082009,0.000321072,6.74685,878,424.766,0.25,-0.25,0.0735,-0.000334072,0.00362189,-1.88875e-08,-0.00104875,-0.000265622,0.00662702,-3.72146e-08,3.67487e-08,-0.00244763,0.000469273,78.4656,-6.62683,462.65,-0.00082009,0.000321072,6.74685,878,424.766,0.25,-0.25,0.0735,-0.000334072,0.00362189,-1.88875e-08,-0.00104875,-0.000265622,0.00662702,-3.72146e-08,3.67487e-08,-0.00244763,0.000469273,78.4656,-6.62683,462.65,-0.00082009,0.000321072,6.74685,878,424.766,0.25,-0.25,0.0735,-0.000334072,0.00362189,-1.88875e-08,-0.00104875,-0.000265622,0.00662702,-3.72146e-08,3.67487e-08,-0.00244763,0.000469273,78.4656,-6.62683,462.65,-0.00082009,0.000321072,6.74685,878,424.766,0.25,-0.25,0.0735,-0.000334072,0.00362189,-1.88875e-08,-0.00104875,-0.000265622,0.00662702,-3.72146e-08,3.67487e-08,-0.00244763,0.000469273,78.4656,-6.62683,462.65,-0.00082009,0.000321072,6.74685,878,424.766,0.25,-0.25,0.0735,-0.000334072,0.00362189,-1.88875e-08,-0.00104875,-0.000265622,0.00662702,-3.72146e-08,3.67487e-08,-0.00244763,0.000469273,78.4656,-6.62683,462.65,-0.00082009,0.000321072,6.74685,878,0,0,0,0,0,0,0,0,0,0,0,0,0,0,0,0,0,0,0,0,0,1
stats,40,1,0.41,431.648,0.25,-0.25,0.0735,-0.000344,0.00371393,-2.24639e-08,-0.00108628,-0.000266066,0.00682269,-4.39198e-08,4.19405e-08,-0.00253972,0.00058043,81.1215,-6.52887,470.968,-0.000985517,0.000359426,7.3315,878,431.648,0.25,-0.25,0.0735,-0.000344,0.00371393,-2.24639e-08,-0.00108628,-0.000266066,0.00682269,-4.39198e-08,4.19405e-08,-0.00253972,0.00058043,81.1215,-6.52887,470.968,-0.000985517,0.000359426,7.3315,878,431.648,0.25,-0.25,0.0735,-0.000344,0.00371393,-2.24639e-08,-0.00108628,-0.000266066,0.00682269,-4.39198e-08,4.19405e-08,-0.00253972,0.00058043,81.1215,-6.52887,470.968,-0.000985517,0.000359426,7.3315,878,431.648,0.25,-0.25,0.0735,-0.000344,0.00371393,-2.24639e-08,-0.00108628,-0.000266066,0.00682269,-4.39198e-08,4.19405e-08,-0.00253972,0.00058043,81.1215,-6.52887,470.968,-0.000985517,0.000359426,7.3315,878,431.648,0.25,-0.25,0.0735,-0.000344,0.00371393,-2.24639e-08,-0.00108628,-0.000266066,0.00682269,-4.39198e-08,4.19405e-08,-0.00253972,0.00058043,81.1215,-6.52887,470.968,-0.000985517,0.000359426,7.3315,878,431.648,0.25,-0.25,0.0735,-0.000344,0.00371393,-2.24639e-08,-0.00108628,-0.000266066,0.00682269,-4.39198e-08,4.19405e-08,-0.00253972,0.00058043,81.1215,-6.52887,470.968,-0.000985517,0.000359426,7.3315,878,0,0,0,0,0,0,0,0,0,0,0,0,0,0,0,0,0,0,0,0,0,1
stats,41,1,0.42,438.169,0.25,-0.25,0.0735,-0.000354415,0.00380653,-4.28903e-08,-0.00112518,-0.000263515,0.00702015,-5.13166e-08,4.78759e-08,-0.00263358,0.000699765,83.7937,-6.35082,478.969,-0.00117718,0.000371079,7.98102,878,438.169,0.25,-0.25,0.0735,-0.000354415,0.00380653,-4.28903e-08,-0.00112518,-0.000263515,0.00702015,-5.13166e-08,4.78759e-08,-0.00263358,0.000699765,83.7937,-6.35082,478.969,-0.00117718,0.000371079,7.98102,878,438.169,0.25,-0.25,0.0735,-0.000354415,0.00380653,-4.28903e-08,-0.00112518,-0.000263515,0.00702015,-5.13166e-08,4.78759e-08,-0.00263358,0.000699765,83.7937,-6.35082,478.969,-0.00117718,0.000371079,7.98102,878,438.169,0.25,-0.25,0.0735,-0.000354415,0.00380653,-4.28903e-08,-0.00112518,-0.000263515,0.00702015,-5.13166e-08,4.78759e-08,-0.00263358,0.000699765,83.7937,-6.35082,478.969,-0.00117718,0.000371079,7.98102,878,438.169,0.25,-0.25,0.0735,-0.000354415,0.00380653,-4.28903e-08,-0.00112518,-0.000263515,0.00702015,-5.13166e-08,4.78759e-08,-0.00263358,0.000699765,83.7937,-6.35082,478.969,-0.00117718,0.000371079,7.98102,878,438.169,0.25,-0.25,0.0735,-0.000354415,0.00380653,-4.28903e-08,-0.00112518,-0.000263515,0.00702015,-5.13166e-08,4.78759e-08,-0.00263358,0.000699765,83.7937,-6.35082,478.969,-0.00117718,0.000371079,7.98102,878,0,0,0,0,0,0,0,0,0,0,0,0,0,0,0,0,0,0,0,0,0,1
stats,42,1,0.43,444.31,0.25,-0.25,0.0735,-0.000365144,0.00389926,-3.46543e-08,-0.00116513,-0.000260444,0.00722075,-5.52703e-08,5.33537e-08,-0.00273067,0.000829341,86.544,-6.16163,486.644,-0.0012946,0.000357015,8.67757,878,444.31,0.25,-0.25,0.0735,-0.000365144,0.00389926,-3.46543e-08,-0.00116513,-0.000260444,0.00722075,-5.52703e-08,5.33537e-08,-0.00273067,0.000829341,86.544,-6.16163,486.644,-0.0012946,0.000357015,8.67757,878,444.31,0.25,-0.25,0.0735,-0.000365144,0.00389926,-3.46543e-08,-0.00116513,-0.000260444,0.00722075,-5.52703e-08,5.33537e-08,-0.00273067,0.000829341,86.544,-6.16163,486.644,-0.0012946,0.000357015,8.67757,878,444.31,0.25,-0.25,0.0735,-0.000365144,0.00389926,-3.46543e-08,-0.00116513,-0.000260444,0.00722075,-5.52703e-08,5.33537e-08,-0.00273067,0.000829341,86.544,-6.16163,486.644,-0.0012946,0.000357015,8.67757,878,444.31,0.25,-0.25,0.0735,-0.000365144,0.00389926,-3.46543e-08,-0.00116513,-0.000260444,0.00722075,-5.52703e-08,5.33537e-08,-0.00273067,0.000829341,86.544,-6.16163,486.644,-0.0012946,0.000357015,8.67757,878,444.31,0.25,-0.25,0.0735,-0.000365144,0.00389926,-3.46543e-08,-0.00116513,-0.000260444,0.00722075,-5.52703e-08,5.33537e-08,-0.00273067,0.000829341,86.544,-6.16163,486.644,-0.0012946,0.000357015,8.67757,878,0,0,0,0,0,0,0,0,0,0,0,0,0,0,0,0,0,0,0,0,0,1
stats,43,1,0.44,450.085,0.25,-0.25,0.0735,-0.000376042,0.00399209,-3.68679e-08,-0.00120611,-0.000256705,0.00742427,-5.58553e-08,5.72044e-08,-0.00283089,0.00096875,89.3624,-5.96675,493.995,-0.00134758,0.000281863,9.41342,878,450.085,0.25,-0.25,0.0735,-0.000376042,0.00399209,-3.68679e-08,-0.00120611,-0.000256705,0.00742427,-5.58553e-08,5.72044e-08,-0.00283089,0.00096875,89.3624,-5.96675,493.995,-0.00134758,0.000281863,9.41342,878,450.085,0.25,-0.25,0.0735,-0.000376042,0.00399209,-3.68679e-08,-0.00120611,-0.000256705,0.00742427,-5.58553e-08,5.72044e-08,-0.00283089,0.00096875,89.3624,-5.96675,493.995,-0.00134758,0.000281863,9.41342,878,450.085,0.25,-0.25,0.0735,-0.000376042,0.00399209,-3.68679e-08,-0.00120611,-0.000256705,0.00742427,-5.58553e-08,5.72044e-08,-0.00283089,0.00096875,89.3624,-5.96675,493.995,-0.00134758,0.000281863,9.41342,878,450.085,0.25,-0.25,0.0735,-0.000376042,0.00399209,-3.68679e-08,-0.00120611,-0.000256705,0.00742427,-5.58553e-08,5.72044e-08,-0.00283089,0.00096875,89.3624,-5.96675,493.995,-0.00134758,0.000281863,9.41342,878,450.085,0.25,-0.25,0.0735,-0.000376042,0.00399209,-3.68679e-08,-0.00120611,-0.000256705,0.00742427,-5.58553e-08,5.72044e-08,-0.00283089,0.00096875,89.3624,-5.96675,493.995,-0.00134758,0.000281863,9.41342,878,0,0,0,0,0,0,0,0,0,0,0,0,0,0,0,0,0,0,0,0,0,1
stats,44,1,0.45,457.215,0.25,-0.25,0.0735,-0.000387139,0.00408495,-5.18124e-08,-0.00125289,-0.000253118,0.00763447,-3.23513e-08,9.58869e-08,-0.00293669,0.00109745,91.4327,-5.89225,501.986,-0.000809277,0.000957894,9.43623,878,457.215,0.25,-0.25,0.0735,-0.000387139,0.00408495,-5.18124e-08,-0.00125289,-0.000253118,0.00763447,-3.23513e-08,9.58869e-08,-0.00293669,0.00109745,91.4327,-5.89225,501.986,-0.000809277,0.000957894,9.43623,878,457.215,0.25,-0.25,0.0735,-0.000387139,0.00408495,-5.18124e-08,-0.00125289,-0.000253118,0.00763447,-3.23513e-08,9.58869e-08,-0.00293669,0.00109745,91.4327,-5.89225,501.986,-0.000809277,0.000957894,9.43623,878,457.215,0.25,-0.25,0.0735,-0.000387139,0.00408495,-5.18124e-08,-0.00125289,-0.000253118,0.00763447,-3.23513e-08,9.58869e-08,-0.00293669,0.00109745,91.4327,-5.89225,501.986,-0.000809277,0.000957894,9.43623,878,457.215,0.25,-0.25,0.0735,-0.000387139,0.00408495,-5.18124e-08,-0.00125289,-0.000253118,0.00763447,-3.23513e-08,9.58869e-08,-0.00293669,0.00109745,91.4327,-5.89225,501.986,-0.000809277,0.000957894,9.43623,878,457.215,0.25,-0.25,0.0735,-0.000387139,0.00408495,-5.18124e-08,-0.00125289,-0.000253118,0.00763447,-3.23513e-08,9.58869e-08,-0.00293669,0.00109745,91.4327,-5.89225,501.986,-0.000809277,0.000957894,9.43623,878,0,0,0,0,0,0,0,0,0,0,0,0,0,0,0,0,0,0,0,0,0,1
stats,45,1,0.46,463.735,0.25,-0.25,0.0735,-0.000398649,0.00417822,-4.47442e-08,-0.00130122,-0.000248852,0.00784923,-3.49037e-08,1.02795e-07,-0.00304667,0.00124178,93.6526,-5.74129,509.496,-0.000978592,0.000879517,9.58653,878,463.735,0.25,-0.25,0.0735,-0.000398649,0.00417822,-4.47442e-08,-0.00130122,-0.000248852,0.00784923,-3.49037e-08,1.02795e-07,-0.00304667,0.00124178,93.6526,-5.74129,509.496,-0.000978592,0.000879517,9.58653,878,463.735,0.25,-0.25,0.0735,-0.000398649,0.00417822,-4.47442e-08,-0.00130122,-0.000248852,0.00784923,-3.49037e-08,1.02795e-07,-0.00304667,0.00124178,93.6526,-5.74129,509.496,-0.000978592,0.000879517,9.58653,878,463.735,0.25,-0.25,0.0735,-0.000398649,0.00417822,-4.47442e-08,-0.00130122,-0.000248852,0.00784923,-3.49037e-08,1.02795e-07,-0.00304667,0.00124178,93.6526,-5.74129,509.496,-0.000978592,0.000879517,9.58653,878,463.735,0.25,-0.25,0.0735,-0.000398649,0.00417822,-4.47442e-08,-0.00130122,-0.000248852,0.00784923,-3.49037e-08,1.02795e-07,-0.00304667,0.00124178,93.6526,-5.74129,509.496,-0.000978592,0.000879517,9.58653,878,463.735,0.25,-0.25,0.0735,-0.000398649,0.00417822,-4.47442e-08,-0.00130122,-0.000248852,0.00784923,-3.49037e-08,1.02795e-07,-0.00304667,0.00124178,93.6526,-5.74129,509.496,-0.000978592,0.000879517,9.58653,878,0,0,0,0,0,0,0,0,0,0,0,0,0,0,0,0,0,0,0,0,0,1
stats,46,1,0.47,470.056,0.25,-0.25,0.0735,-0.000410734,0.00427207,-5.13516e-08,-0.0013515,-0.0002441,0.00806828,-3.09636e-08,1.4556e-07,-0.00316031,0.00139512,95.866,-5.54328,516.793,-0.000963491,0.00185253,9.72178,878,470.056,0.25,-0.25,0.0735,-0.000410734,0.00427207,-5.13516e-08,-0.0013515,-0.0002441,0.00806828,-3.09636e-08,1.4556e-07,-0.00316031,0.00139512,95.866,-5.54328,516.793,-0.000963491,0.00185253,9.72178,878,470.056,0.25,-0.25,0.0735,-0.000410734,0.00427207,-5.13516e-08,-0.0013515,-0.0002441,0.00806828,-3.09636e-08,1.4556e-07,-0.00316031,0.00139512,95.866,-5.54328,516.793,-0.000963491,0.00185253,9.72178,878,470.056,0.25,-0.25,0.0735,-0.000410734,0.00427207,-5.13516e-08,-0.0013515,-0.0002441,0.00806828,-3.09636e-08,1.4556e-07,-0.00316031,0.00139512,95.866,-5.54328,516.793,-0.000963491,0.00185253,9.72178,878,470.056,0.25,-0.25,0.0735,-0.000410734,0.00427207,-5.13516e-08,-0.0013515,-0.0002441,0.00806828,-3.09636e-08,1.4556e-07,-0.00316031,0.00139512,95.866,-5.54328,516.793,-0.000963491,0.00185253,9.72178,878,470.056,0.25,-0.25,0.0735,-0.000410734,0.00427207,-5.13516e-08,-0.0013515,-0.0002441,0.00806828,-3.09636e-08,1.4556e-07,-0.00316031,0.00139512,95.866,-5.54328,516.793,-0.000963491,0.00185253,9.72178,878,0,0,0,0,0,0,0,0,0,0,0,0,0,0,0,0,0,0,0,0,0,1
stats,47,1,0.48,474.753,0.25,-0.25,0.0735,-0.000423267,0.00436622,-7.27639e-08,-0.00140423,-0.000239145,0.00829325,-1.74846e-08,1.24011e-07,-0.00328029,0.00158191,98.3216,-5.19192,522.852,-0.000832096,0.00120923,10.3539,878,474.753,0.25,-0.25,0.0735,-0.000423267,0.00436622,-7.27639e-08,-0.00140423,-0.000239145,0.00829325,-1.74846e-08,1.24011e-07,-0.00328029,0.00158191,98.3216,-5.19192,522.852,-0.000832096,0.00120923,10.3539,878,474.753,0.25,-0.25,0.0735,-0.000423267,0.00436622,-7.27639e-08,-0.00140423,-0.000239145,0.00829325,-1.74846e-08,1.24011e-07,-0.00328029,0.00158191,98.3216,-5.19192,522.852,-0.000832096,0.00120923,10.3539,878,474.753,0.25,-0.25,0.0735,-0.000423267,0.00436622,-7.27639e-08,-0.00140423,-0.000239145,0.00829325,-1.74846e-08,1.24011e-07,-0.00328029,0.00158191,98.3216,-5.19192,522.852,-0.000832096,0.00120923,10.3539,878,474.753,0.25,-0.25,0.0735,-0.000423267,0.00436622,-7.27639e-08,-0.00140423,-0.000239145,0.00829325,-1.74846e-08,1.24011e-07,-0.00328029,0.00158191,98.3216,-5.19192,522.852,-0.000832096,0.00120923,10.3539,878,474.753,0.25,-0.25,0.0735,-0.000423267,0.00436622,-7.27639e-08,-0.00140423,-0.000239145,0.00829325,-1.74846e-08,1.24011e-07,-0.00328029,0.00158191,98.3216,-5.19192,522.852,-0.000832096,0.00120923,10.3539,878,0,0,0,0,0,0,0,0,0,0,0,0,0,0,0,0,0,0,0,0,0,1
stats,48,1,0.49,478.029,0.25,-0.25,0.0735,-0.000436475,0.00446064,-5.92301e-08,-0.00146038,-0.000235043,0.00852495,-2.1758e-08,1.14075e-07,-0.00340913,0.00180129,100.853,-4.72476,527.641,-0.00101065,0.000368213,11.2068,878,478.029,0.25,-0.25,0.0735,-0.000436475,0.00446064,-5.92301e-08,-0.00146038,-0.000235043,0.00852495,-2.1758e-08,1.14075e-07,-0.00340913,0.00180129,100.853,-4.72476,527.641,-0.00101065,0.000368213,11.2068,878,478.029,0.25,-0.25,0.0735,-0.000436475,0.00446064,-5.92301e-08,-0.00146038,-0.000235043,0.00852495,-2.1758e-08,1.14075e-07,-0.00340913,0.00180129,100.853,-4.72476,527.641,-0.00101065,0.000368213,11.2068,878,478.029,0.25,-0.25,0.0735,-0.000436475,0.00446064,-5.92301e-08,-0.00146038,-0.000235043,0.00852495,-2.1758e-08,1.14075e-07,-0.00340913,0.00180129,100.853,-4.72476,527.641,-0.00101065,0.000368213,11.2068,878,478.029,0.25,-0.25,0.0735,-0.000436475,0.00446064,-5.92301e-08,-0.00146038,-0.000235043,0.00852495,-2.1758e-08,1.14075e-07,-0.00340913,0.00180129,100.853,-4.72476,527.641,-0.00101065,0.000368213,11.2068,878,478.029,0.25,-0.25,0.0735,-0.000436475,0.00446064,-5.92301e-08,-0.00146038,-0.000235043,0.00852495,-2.1758e-08,1.14075e-07,-0.00340913,0.00180129,100.853,-4.72476,527.641,-0.00101065,0.000368213,11.2068,878,0,0,0,0,0,0,0,0,0,0,0,0,0,0,0,0,0,0,0,0,0,1
stats,49,1,0.5,482.422,0.25,-0.25,0.0735,-0.000450018,0.00455421,-6.01262e-08,-0.00152074,-0.00023738,0.00876647,1.53077e-08,1.22217e-07,-0.0035474,0.00201789,102.962,-4.64645,532.924,-0.000256497,0.000364951,11.3225,878,482.422,0.25,-0.25,0.0735,-0.000450018,0.00455421,-6.01262e-08,-0.00152074,-0.00023738,0.00876647,1.53077e-08,1.22217e-07,-0.0035474,0.00201789,102.962,-4.64645,532.924,-0.000256497,0.000364951,11.3225,878,482.422,0.25,-0.25,0.0735,-0.000450018,0.00455421,-6.01262e-08,-0.00152074,-0.00023738,0.00876647,1.53077e-08,1.22217e-07,-0.0035474,0.00201789,102.962,-4.64645,532.924,-0.000256497,0.000364951,11.3225,878,482.422,0.25,-0.25,0.0735,-0.000450018,0.00455421,-6.01262e-08,-0.00152074,-0.00023738,0.00876647,1.53077e-08,1.22217e-07,-0.0035474,0.00201789,102.962,-4.64645,532.924,-0.000256497,0.000364951,11.3225,878,482.422,0.25,-0.25,0.0735,-0.000450018,0.00455421,-6.01262e-08,-0.00152074,-0.00023738,0.00876647,1.53077e-08,1.22217e-07,-0.0035474,0.00201789,102.962,-4.64645,532.924,-0.000256497,0.000364951,11.3225,878,482.422,0.25,-0.25,0.0735,-0.000450018,0.00455421,-6.01262e-08,-0.00152074,-0.00023738,0.00876647,1.53077e-08,1.22217e-07,-0.0035474,0.00201789,102.962,-4.64645,532.924,-0.000256497,0.000364951,11.3225,878,0,0,0,0,0,0,0,0,0,0,0,0,0,0,0,0,0,0,0,0,0,1
stats,50,1,0.51,486.891,0.25,-0.25,0.0735,-0.000464362,0.0046482,-5.42428e-08,-0.00158832,-0.000238036,0.00902334,1.18463e-08,1.19848e-07,-0.00369814,0.00225424,104.796,-4.49451,538.003,-0.000555276,-9.23861e-05,11.1564,878,486.891,0.25,-0.25,0.0735,-0.000464362,0.0046482,-5.42428e-08,-0.00158832,-0.000238036,0.00902334,1.18463e-08,1.19848e-07,-0.00369814,0.00225424,104.796,-4.49451,538.003,-0.000555276,-9.23861e-05,11.1564,878,486.891,0.25,-0.25,0.0735,-0.000464362,0.0046482,-5.42428e-08,-0.00158832,-0.000238036,0.00902334,1.18463e-08,1.19848e-07,-0.00369814,0.00225424,104.796,-4.49451,538.003,-0.000555276,-9.23861e-05,11.1564,878,486.891,0.25,-0.25,0.0735,-0.000464362,0.0046482,-5.42428e-08,-0.00158832,-0.000238036,0.00902334,1.18463e-08,1.19848e-07,-0.00369814,0.00225424,104.796,-4.49451,538.003,-0.000555276,-9.23861e-05,11.1564,878,486.891,0.25,-0.25,0.0735,-0.000464362,0.0046482,-5.42428e-08,-0.00158832,-0.000238036,0.00902334,1.18463e-08,1.19848e-07,-0.00369814,0.00225424,104.796,-4.49451,538.003,-0.000555276,-9.23861e-05,11.1564,878,486.891,0.25,-0.25,0.0735,-0.000464362,0.0046482,-5.42428e-08,-0.00158832,-0.000238036,0.00902334,1.18463e-08,1.19848e-07,-0.00369814,0.00225424,104.796,-4.49451,538.003,-0.000555276,-9.23861e-05,11.1564,878,0,0,0,0,0,0,0,0,0,0,0,0,0,0,0,0,0,0,0,0,0,1
stats,51,1,0.52,491.116,0.25,-0.25,0.0735,-0.00047933,0.00474265,-6.77813e-08,-0.00165961,-0.000239214,0.00928757,2.00695e-08,2.0096e-07,-0.00385511,0.00250455,106.525,-4.30573,542.773,-0.000675548,0.00174455,10.9521,878,491.116,0.25,-0.25,0.0735,-0.00047933,0.00474265,-6.77813e-08,-0.00165961,-0.000239214,0.00928757,2.00695e-08,2.0096e-07,-0.00385511,0.00250455,106.525,-4.30573,542.773,-0.000675548,0.00174455,10.9521,878,491.116,0.25,-0.25,0.0735,-0.00047933,0.00474265,-6.77813e-08,-0.00165961,-0.000239214,0.00928757,2.00695e-08,2.0096e-07,-0.00385511,0.00250455,106.525,-4.30573,542.773,-0.000675548,0.00174455,10.9521,878,491.116,0.25,-0.25,0.0735,-0.00047933,0.00474265,-6.77813e-08,-0.00165961,-0.000239214,0.00928757,2.00695e-08,2.0096e-07,-0.00385511,0.00250455,106.525,-4.30573,542.773,-0.000675548,0.00174455,10.9521,878,491.116,0.25,-0.25,0.0735,-0.00047933,0.00474265,-6.77813e-08,-0.00165961,-0.000239214,0.00928757,2.00695e-08,2.0096e-07,-0.00385511,0.00250455,106.525,-4.30573,542.773,-0.000675548,0.00174455,10.9521,878,491.116,0.25,-0.25,0.0735,-0.00047933,0.00474265,-6.77813e-08,-0.00165961,-0.000239214,0.00928757,2.00695e-08,2.0096e-07,-0.00385511,0.00250455,106.525,-4.30573,542.773,-0.000675548,0.00174455,10.9521,878,0,0,0,0,0,0,0,0,0,0,0,0,0,0,0,0,0,0,0,0,0,1
stats,52,1,0.53,495.413,0.25,-0.25,0.0735,-0.00049475,0.00483724,-7.12427e-08,-0.00173213,-0.000239815,0.009554,3.05487e-08,2.27821e-07,-0.00401413,0.00275698,108.155,-4.12313,547.528,-0.000416388,0.0014596,10.6707,878,495.413,0.25,-0.25,0.0735,-0.00049475,0.00483724,-7.12427e-08,-0.00173213,-0.000239815,0.009554,3.05487e-08,2.27821e-07,-0.00401413,0.00275698,108.155,-4.12313,547.528,-0.000416388,0.0014596,10.6707,878,495.413,0.25,-0.25,0.0735,-0.00049475,0.00483724,-7.12427e-08,-0.00173213,-0.000239815,0.009554,3.05487e-08,2.27821e-07,-0.00401413,0.00275698,108.155,-4.12313,547.528,-0.000416388,0.0014596,10.6707,878,495.413,0.25,-0.25,0.0735,-0.00049475,0.00483724,-7.12427e-08,-0.00173213,-0.000239815,0.009554,3.05487e-08,2.27821e-07,-0.00401413,0.00275698,108.155,-4.12313,547.528,-0.000416388,0.0014596,10.6707,878,495.413,0.25,-0.25,0.0735,-0.00049475,0.00483724,-7.12427e-08,-0.00173213,-0.000239815,0.009554,3.05487e-08,2.27821e-07,-0.00401413,0.00275698,108.155,-4.12313,547.528,-0.000416388,0.0014596,10.6707,878,495.413,0.25,-0.25,0.0735,-0.00049475,0.00483724,-7.12427e-08,-0.00173213,-0.000239815,0.009554,3.05487e-08,2.27821e-07,-0.00401413,0.00275698,108.155,-4.12313,547.528,-0.000416388,0.0014596,10.6707,878,0,0,0,0,0,0,0,0,0,0,0,0,0,0,0,0,0,0,0,0,0,1
stats,53,1,0.54,499.432,0.25,-0.25,0.0735,-0.000510736,0.00493208,-5.8998e-08,-0.00180766,-0.000240236,0.00982663,7.72625e-08,2.16847e-07,-0.00417906,0.00302258,109.699,-3.92722,551.94,0.000318588,0.00136389,10.3462,878,499.432,0.25,-0.25,0.0735,-0.000510736,0.00493208,-5.8998e-08,-0.00180766,-0.000240236,0.00982663,7.72625e-08,2.16847e-07,-0.00417906,0.00302258,109.699,-3.92722,551.94,0.000318588,0.00136389,10.3462,878,499.432,0.25,-0.25,0.0735,-0.000510736,0.00493208,-5.8998e-08,-0.00180766,-0.000240236,0.00982663,7.72625e-08,2.16847e-07,-0.00417906,0.00302258,109.699,-3.92722,551.94,0.000318588,0.00136389,10.3462,878,499.432,0.25,-0.25,0.0735,-0.000510736,0.00493208,-5.8998e-08,-0.00180766,-0.000240236,0.00982663,7.72625e-08,2.16847e-07,-0.00417906,0.00302258,109.699,-3.92722,551.94,0.000318588,0.00136389,10.3462,878,499.432,0.25,-0.25,0.0735,-0.000510736,0.00493208,-5.8998e-08,-0.00180766,-0.000240236,0.00982663,7.72625e-08,2.16847e-07,-0.00417906,0.00302258,109.699,-3.92722,551.94,0.000318588,0.00136389,10.3462,878,499.432,0.25,-0.25,0.0735,-0.000510736,0.00493208,-5.8998e-08,-0.00180766,-0.000240236,0.00982663,7.72625e-08,2.16847e-07,-0.00417906,0.00302258,109.699,-3.92722,551.94,0.000318588,0.00136389,10.3462,878,0,0,0,0,0,0,0,0,0,0,0,0,0,0,0,0,0,0,0,0,0,1
stats,54,1,0.55,503.295,0.25,-0.25,0.0735,-0.000527196,0.00502673,-6.04089e-08,-0.00188674,-0.000243221,0.0101045,1.14868e-07,2.28524e-07,-0.0043495,0.00329869,111.033,-3.79317,556.031,0.00107945,0.00131949,9.88862,878,503.295,0.25,-0.25,0.0735,-0.000527196,0.00502673,-6.04089e-08,-0.00188674,-0.000243221,0.0101045,1.14868e-07,2.28524e-07,-0.0043495,0.00329869,111.033,-3.79317,556.031,0.00107945,0.00131949,9.88862,878,503.295,0.25,-0.25,0.0735,-0.000527196,0.00502673,-6.04089e-08,-0.00188674,-0.000243221,0.0101045,1.14868e-07,2.28524e-07,-0.0043495,0.00329869,111.033,-3.79317,556.031,0.00107945,0.00131949,9.88862,878,503.295,0.25,-0.25,0.0735,-0.000527196,0.00502673,-6.04089e-08,-0.00188674,-0.000243221,0.0101045,1.14868e-07,2.28524e-07,-0.0043495,0.00329869,111.033,-3.79317,556.031,0.00107945,0.00131949,9.88862,878,503.295,0.25,-0.25,0.0735,-0.000527196,0.00502673,-6.04089e-08,-0.00188674,-0.000243221,0.0101045,1.14868e-07,2.28524e-07,-0.0043495,0.00329869,111.033,-3.79317,556.031,0.00107945,0.00131949,9.88862,878,503.295,0.25,-0.25,0.0735,-0.000527196,0.00502673,-6.04089e-08,-0.00188674,-0.000243221,0.0101045,1.14868e-07,2.28524e-07,-0.0043495,0.00329869,111.033,-3.79317,556.031,0.00107945,0.00131949,9.88862,878,0,0,0,0,0,0,0,0,0,0,0,0,0,0,0,0,0,0,0,0,0,1
stats,55,1,0.56,506.999,0.25,-0.25,0.0735,-0.000544316,0.0051216,-4.38326e-08,-0.00196892,-0.000246234,0.0103886,1.63815e-07,2.445e-07,-0.00452605,0.00358627,112.23,-3.64466,559.84,0.00207418,0.00145502,9.32061,878,506.999,0.25,-0.25,0.0735,-0.000544316,0.0051216,-4.38326e-08,-0.00196892,-0.000246234,0.0103886,1.63815e-07,2.445e-07,-0.00452605,0.00358627,112.23,-3.64466,559.84,0.00207418,0.00145502,9.32061,878,506.999,0.25,-0.25,0.0735,-0.000544316,0.0051216,-4.38326e-08,-0.00196892,-0.000246234,0.0103886,1.63815e-07,2.445e-07,-0.00452605,0.00358627,112.23,-3.64466,559.84,0.00207418,0.00145502,9.32061,878,506.999,0.25,-0.25,0.0735,-0.000544316,0.0051216,-4.38326e-08,-0.00196892,-0.000246234,0.0103886,1.63815e-07,2.445e-07,-0.00452605,0.00358627,112.23,-3.64466,559.84,0.00207418,0.00145502,9.32061,878,506.999,0.25,-0.25,0.0735,-0.000544316,0.0051216,-4.38326e-08,-0.00196892,-0.000246234,0.0103886,1.63815e-07,2.445e-07,-0.00452605,0.00358627,112.23,-3.64466,559.84,0.00207418,0.00145502,9.32061,878,506.999,0.25,-0.25,0.0735,-0.000544316,0.0051216,-4.38326e-08,-0.00196892,-0.000246234,0.0103886,1.63815e-07,2.445e-07,-0.00452605,0.00358627,112.23,-3.64466,559.84,0.00207418,0.00145502,9.32061,878,0,0,0,0,0,0,0,0,0,0,0,0,0,0,0,0,0,0,0,0,0,1
stats,56,1,0.57,510.539,0.25,-0.25,0.0735,-0.000562259,0.00521661,3.18412e-08,-0.00205389,-0.000249581,0.01068,2.22017e-07,2.72326e-07,-0.00470901,0.00388633,113.371,-3.50557,563.424,0.00323611,0.00193686,8.69713,878,510.539,0.25,-0.25,0.0735,-0.000562259,0.00521661,3.18412e-08,-0.00205389,-0.000249581,0.01068,2.22017e-07,2.72326e-07,-0.00470901,0.00388633,113.371,-3.50557,563.424,0.00323611,0.00193686,8.69713,878,510.539,0.25,-0.25,0.0735,-0.000562259,0.00521661,3.18412e-08,-0.00205389,-0.000249581,0.01068,2.22017e-07,2.72326e-07,-0.00470901,0.00388633,113.371,-3.50557,563.424,0.00323611,0.00193686,8.69713,878,510.539,0.25,-0.25,0.0735,-0.000562259,0.00521661,3.18412e-08,-0.00205389,-0.000249581,0.01068,2.22017e-07,2.72326e-07,-0.00470901,0.00388633,113.371,-3.50557,563.424,0.00323611,0.00193686,8.69713,878,510.539,0.25,-0.25,0.0735,-0.000562259,0.00521661,3.18412e-08,-0.00205389,-0.000249581,0.01068,2.22017e-07,2.72326e-07,-0.00470901,0.00388633,113.371,-3.50557,563.424,0.00323611,0.00193686,8.69713,878,510.539,0.25,-0.25,0.0735,-0.000562259,0.00521661,3.18412e-08,-0.00205389,-0.000249581,0.01068,2.22017e-07,2.72326e-07,-0.00470901,0.00388633,113.371,-3.50557,563.424,0.00323611,0.00193686,8.69713,878,0,0,0,0,0,0,0,0,0,0,0,0,0,0,0,0,0,0,0,0,0,1
stats,57,1,0.58,513.934,0.25,-0.25,0.0735,-0.000580683,0.00531188,-2.77621e-08,-0.00214181,-0.000254016,0.0109779,3.02058e-07,2.83475e-07,-0.004898,0.0041978,114.402,-3.3896,566.767,0.00492859,0.00192914,7.9919,878,513.934,0.25,-0.25,0.0735,-0.000580683,0.00531188,-2.77621e-08,-0.00214181,-0.000254016,0.0109779,3.02058e-07,2.83475e-07,-0.004898,0.0041978,114.402,-3.3896,566.767,0.00492859,0.00192914,7.9919,878,513.934,0.25,-0.25,0.0735,-0.000580683,0.00531188,-2.77621e-08,-0.00214181,-0.000254016,0.0109779,3.02058e-07,2.83475e-07,-0.004898,0.0041978,114.402,-3.3896,566.767,0.00492859,0.00192914,7.9919,878,513.934,0.25,-0.25,0.0735,-0.000580683,0.00531188,-2.77621e-08,-0.00214181,-0.000254016,0.0109779,3.02058e-07,2.83475e-07,-0.004898,0.0041978,114.402,-3.3896,566.767,0.00492859,0.00192914,7.9919,878,513.934,0.25,-0.25,0.0735,-0.000580683,0.00531188,-2.77621e-08,-0.00214181,-0.000254016,0.0109779,3.02058e-07,2.83475e-07,-0.004898,0.0041978,114.402,-3.3896,566.767,0.00492859,0.00192914,7.9919,878,513.934,0.25,-0.25,0.0735,-0.000580683,0.00531188,-2.77621e-08,-0.00214181,-0.000254016,0.0109779,3.02058e-07,2.83475e-07,-0.004898,0.0041978,114.402,-3.3896,566.767,0.00492859,0.00192914,7.9919,878,0,0,0,0,0,0,0,0,0,0,0,0,0,0,0,0,0,0,0,0,0,1
stats,58,1,0.59,517.08,0.25,-0.25,0.0735,-0.000599869,0.00540694,-1.96127e-08,-0.00223488,-0.000260566,0.0112878,3.85701e-07,3.12592e-07,-0.00509744,0.00452966,115.288,-3.30645,569.737,0.00658338,0.00237922,7.18192,878,517.08,0.25,-0.25,0.0735,-0.000599869,0.00540694,-1.96127e-08,-0.00223488,-0.000260566,0.0112878,3.85701e-07,3.12592e-07,-0.00509744,0.00452966,115.288,-3.30645,569.737,0.00658338,0.00237922,7.18192,878,517.08,0.25,-0.25,0.0735,-0.000599869,0.00540694,-1.96127e-08,-0.00223488,-0.000260566,0.0112878,3.85701e-07,3.12592e-07,-0.00509744,0.00452966,115.288,-3.30645,569.737,0.00658338,0.00237922,7.18192,878,517.08,0.25,-0.25,0.0735,-0.000599869,0.00540694,-1.96127e-08,-0.00223488,-0.000260566,0.0112878,3.85701e-07,3.12592e-07,-0.00509744,0.00452966,115.288,-3.30645,569.737,0.00658338,0.00237922,7.18192,878,517.08,0.25,-0.25,0.0735,-0.000599869,0.00540694,-1.96127e-08,-0.00223488,-0.000260566,0.0112878,3.85701e-07,3.12592e-07,-0.00509744,0.00452966,115.288,-3.30645,569.737,0.00658338,0.00237922,7.18192,878,517.08,0.25,-0.25,0.0735,-0.000599869,0.00540694,-1.96127e-08,-0.00223488,-0.000260566,0.0112878,3.85701e-07,3.12592e-07,-0.00509744,0.00452966,115.288,-3.30645,569.737,0.00658338,0.00237922,7.18192,878,0,0,0,0,0,0,0,0,0,0,0,0,0,0,0,0,0,0,0,0,0,1
stats,59,1,0.6,520.179,0.25,-0.25,0.0735,-0.00061969,0.00550213,-6.75312e-09,-0.00233167,-0.000269057,0.0116065,4.87965e-07,3.34675e-07,-0.00530405,0.00487409,116.051,-3.26387,572.553,0.00857937,0.00267467,6.27997,878,520.179,0.25,-0.25,0.0735,-0.00061969,0.00550213,-6.75312e-09,-0.00233167,-0.000269057,0.0116065,4.87965e-07,3.34675e-07,-0.00530405,0.00487409,116.051,-3.26387,572.553,0.00857937,0.00267467,6.27997,878,520.179,0.25,-0.25,0.0735,-0.00061969,0.00550213,-6.75312e-09,-0.00233167,-0.000269057,0.0116065,4.87965e-07,3.34675e-07,-0.00530405,0.00487409,116.051,-3.26387,572.553,0.00857937,0.00267467,6.27997,878,520.179,0.25,-0.25,0.0735,-0.00061969,0.00550213,-6.75312e-09,-0.00233167,-0.000269057,0.0116065,4.87965e-07,3.34675e-07,-0.00530405,0.00487409,116.051,-3.26387,572.553,0.00857937,0.00267467,6.27997,878,520.179,0.25,-0.25,0.0735,-0.00061969,0.00550213,-6.75312e-09,-0.00233167,-0.000269057,0.0116065,4.87965e-07,3.34675e-07,-0.00530405,0.00487409,116.051,-3.26387,572.553,0.00857937,0.00267467,6.27997,878,520.179,0.25,-0.25,0.0735,-0.00061969,0.00550213,-6.75312e-09,-0.00233167,-0.000269057,0.0116065,4.87965e-07,3.34675e-07,-0.00530405,0.00487409,116.051,-3.26387,572.553,0.00857937,0.00267467,6.27997,878,0,0,0,0,0,0,0,0,0,0,0,0,0,0,0,0,0,0,0,0,0,1
stats,60,1,0.61,523.164,0.25,-0.25,0.0735,-0.00064004,0.00559716,7.23386e-09,-0.00243267,-0.000276103,0.0119351,5.95296e-07,3.57075e-07,-0.00551861,0.00523354,116.691,-3.18826,575.167,0.0105972,0.00289467,5.31212,878,523.164,0.25,-0.25,0.0735,-0.00064004,0.00559716,7.23386e-09,-0.00243267,-0.000276103,0.0119351,5.95296e-07,3.57075e-07,-0.00551861,0.00523354,116.691,-3.18826,575.167,0.0105972,0.00289467,5.31212,878,523.164,0.25,-0.25,0.0735,-0.00064004,0.00559716,7.23386e-09,-0.00243267,-0.000276103,0.0119351,5.95296e-07,3.57075e-07,-0.00551861,0.00523354,116.691,-3.18826,575.167,0.0105972,0.00289467,5.31212,878,523.164,0.25,-0.25,0.0735,-0.00064004,0.00559716,7.23386e-09,-0.00243267,-0.000276103,0.0119351,5.95296e-07,3.57075e-07,-0.00551861,0.00523354,116.691,-3.18826,575.167,0.0105972,0.00289467,5.31212,878,523.164,0.25,-0.25,0.0735,-0.00064004,0.00559716,7.23386e-09,-0.00243267,-0.000276103,0.0119351,5.95296e-07,3.57075e-07,-0.00551861,0.00523354,116.691,-3.18826,575.167,0.0105972,0.00289467,5.31212,878,523.164,0.25,-0.25,0.0735,-0.00064004,0.00559716,7.23386e-09,-0.00243267,-0.000276103,0.0119351,5.95296e-07,3.57075e-07,-0.00551861,0.00523354,116.691,-3.18826,575.167,0.0105972,0.00289467,5.31212,878,0,0,0,0,0,0,0,0,0,0,0,0,0,0,0,0,0,0,0,0,0,1
stats,61,1,0.62,526.058,0.25,-0.25,0.0735,-0.00066107,0.00569209,2.19387e-08,-0.0025377,-0.000284761,0.0122744,7.02903e-07,3.8409e-07,-0.00574145,0.0056084,117.249,-3.14699,577.629,0.0124477,0.00323835,4.29939,878,526.058,0.25,-0.25,0.0735,-0.00066107,0.00569209,2.19387e-08,-0.0025377,-0.000284761,0.0122744,7.02903e-07,3.8409e-07,-0.00574145,0.0056084,117.249,-3.14699,577.629,0.0124477,0.00323835,4.29939,878,526.058,0.25,-0.25,0.0735,-0.00066107,0.00569209,2.19387e-08,-0.0025377,-0.000284761,0.0122744,7.02903e-07,3.8409e-07,-0.00574145,0.0056084,117.249,-3.14699,577.629,0.0124477,0.00323835,4.29939,878,526.058,0.25,-0.25,0.0735,-0.00066107,0.00569209,2.19387e-08,-0.0025377,-0.000284761,0.0122744,7.02903e-07,3.8409e-07,-0.00574145,0.0056084,117.249,-3.14699,577.629,0.0124477,0.00323835,4.29939,878,526.058,0.25,-0.25,0.0735,-0.00066107,0.00569209,2.19387e-08,-0.0025377,-0.000284761,0.0122744,7.02903e-07,3.8409e-07,-0.00574145,0.0056084,117.249,-3.14699,577.629,0.0124477,0.00323835,4.29939,878,526.058,0.25,-0.25,0.0735,-0.00066107,0.00569209,2.19387e-08,-0.0025377,-0.000284761,0.0122744,7.02903e-07,3.8409e-07,-0.00574145,0.0056084,117.249,-3.14699,577.629,0.0124477,0.00323835,4.29939,878,0,0,0,0,0,0,0,0,0,0,0,0,0,0,0,0,0,0,0,0,0,1
stats,62,1,0.63,528.965,0.25,-0.25,0.0735,-0.000682681,0.00578727,4.54425e-08,-0.00264409,-0.000292127,0.0126183,8.12425e-07,4.07955e-07,-0.00596762,0.00598877,117.79,-3.0758,580.089,0.0141913,0.00345747,3.27209,878,528.965,0.25,-0.25,0.0735,-0.000682681,0.00578727,4.54425e-08,-0.00264409,-0.000292127,0.0126183,8.12425e-07,4.07955e-07,-0.00596762,0.00598877,117.79,-3.0758,580.089,0.0141913,0.00345747,3.27209,878,528.965,0.25,-0.25,0.0735,-0.000682681,0.00578727,4.54425e-08,-0.00264409,-0.000292127,0.0126183,8.12425e-07,4.07955e-07,-0.00596762,0.00598877,117.79,-3.0758,580.089,0.0141913,0.00345747,3.27209,878,528.965,0.25,-0.25,0.0735,-0.000682681,0.00578727,4.54425e-08,-0.00264409,-0.000292127,0.0126183,8.12425e-07,4.07955e-07,-0.00596762,0.00598877,117.79,-3.0758,580.089,0.0141913,0.00345747,3.27209,878,528.965,0.25,-0.25,0.0735,-0.000682681,0.00578727,4.54425e-08,-0.00264409,-0.000292127,0.0126183,8.12425e-07,4.07955e-07,-0.00596762,0.00598877,117.79,-3.0758,580.089,0.0141913,0.00345747,3.27209,878,528.965,0.25,-0.25,0.0735,-0.000682681,0.00578727,4.54425e-08,-0.00264409,-0.000292127,0.0126183,8.12425e-07,4.07955e-07,-0.00596762,0.00598877,117.79,-3.0758,580.089,0.0141913,0.00345747,3.27209,878,0,0,0,0,0,0,0,0,0,0,0,0,0,0,0,0,0,0,0,0,0,1
stats,63,1,0.64,531.51,0.25,-0.25,0.0735,-0.0007051,0.00588153,7.69413e-08,-0.00275882,-0.000299777,0.012982,9.54353e-07,4.75153e-07,-0.00620983,0.00640127,118.153,-3.05776,582.045,0.0165086,0.00482604,2.13557,878,531.51,0.25,-0.25,0.0735,-0.0007051,0.00588153,7.69413e-08,-0.00275882,-0.000299777,0.012982,9.54353e-07,4.75153e-07,-0.00620983,0.00640127,118.153,-3.05776,582.045,0.0165086,0.00482604,2.13557,878,531.51,0.25,-0.25,0.0735,-0.0007051,0.00588153,7.69413e-08,-0.00275882,-0.000299777,0.012982,9.54353e-07,4.75153e-07,-0.00620983,0.00640127,118.153,-3.05776,582.045,0.0165086,0.00482604,2.13557,878,531.51,0.25,-0.25,0.0735,-0.0007051,0.00588153,7.69413e-08,-0.00275882,-0.000299777,0.012982,9.54353e-07,4.75153e-07,-0.00620983,0.00640127,118.153,-3.05776,582.045,0.0165086,0.00482604,2.13557,878,531.51,0.25,-0.25,0.0735,-0.0007051,0.00588153,7.69413e-08,-0.00275882,-0.000299777,0.012982,9.54353e-07,4.75153e-07,-0.00620983,0.00640127,118.153,-3.05776,582.045,0.0165086,0.00482604,2.13557,878,531.51,0.25,-0.25,0.0735,-0.0007051,0.00588153,7.69413e-08,-0.00275882,-0.000299777,0.012982,9.54353e-07,4.75153e-07,-0.00620983,0.00640127,118.153,-3.05776,582.045,0.0165086,0.00482604,2.13557,878,0,0,0,0,0,0,0,0,0,0,0,0,0,0,0,0,0,0,0,0,0,1
stats,64,1,0.65,534.161,0.25,-0.25,0.0735,-0.000728007,0.0059755,7.88311e-08,-0.00287328,-0.000301086,0.0133442,1.07679e-06,5.00702e-07,-0.00644945,0.00680942,118.506,-2.90364,584.165,0.0181262,0.00515775,1.08623,878,534.161,0.25,-0.25,0.0735,-0.000728007,0.0059755,7.88311e-08,-0.00287328,-0.000301086,0.0133442,1.07679e-06,5.00702e-07,-0.00644945,0.00680942,118.506,-2.90364,584.165,0.0181262,0.00515775,1.08623,878,534.161,0.25,-0.25,0.0735,-0.000728007,0.0059755,7.88311e-08,-0.00287328,-0.000301086,0.0133442,1.07679e-06,5.00702e-07,-0.00644945,0.00680942,118.506,-2.90364,584.165,0.0181262,0.00515775,1.08623,878,534.161,0.25,-0.25,0.0735,-0.000728007,0.0059755,7.88311e-08,-0.00287328,-0.000301086,0.0133442,1.07679e-06,5.00702e-07,-0.00644945,0.00680942,118.506,-2.90364,584.165,0.0181262,0.00515775,1.08623,878,534.161,0.25,-0.25,0.0735,-0.000728007,0.0059755,7.88311e-08,-0.00287328,-0.000301086,0.0133442,1.07679e-06,5.00702e-07,-0.00644945,0.00680942,118.506,-2.90364,584.165,0.0181262,0.00515775,1.08623,878,534.161,0.25,-0.25,0.0735,-0.000728007,0.0059755,7.88311e-08,-0.00287328,-0.000301086,0.0133442,1.07679e-06,5.00702e-07,-0.00644945,0.00680942,118.506,-2.90364,584.165,0.0181262,0.00515775,1.08623,878,0,0,0,0,0,0,0,0,0,0,0,0,0,0,0,0,0,0,0,0,0,1
stats,65,1,0.66,536.728,0.25,-0.25,0.0735,-0.00075169,0.00606961,1.47607e-07,-0.00299161,-0.000306769,0.0137188,1.20435e-06,5.33133e-07,-0.00670038,0.00723583,118.774,-2.79306,586.052,0.019692,0.00536873,-0.138523,878,536.728,0.25,-0.25,0.0735,-0.00075169,0.00606961,1.47607e-07,-0.00299161,-0.000306769,0.0137188,1.20435e-06,5.33133e-07,-0.00670038,0.00723583,118.774,-2.79306,586.052,0.019692,0.00536873,-0.138523,878,536.728,0.25,-0.25,0.0735,-0.00075169,0.00606961,1.47607e-07,-0.00299161,-0.000306769,0.0137188,1.20435e-06,5.33133e-07,-0.00670038,0.00723583,118.774,-2.79306,586.052,0.019692,0.00536873,-0.138523,878,536.728,0.25,-0.25,0.0735,-0.00075169,0.00606961,1.47607e-07,-0.00299161,-0.000306769,0.0137188,1.20435e-06,5.33133e-07,-0.00670038,0.00723583,118.774,-2.79306,586.052,0.019692,0.00536873,-0.138523,878,536.728,0.25,-0.25,0.0735,-0.00075169,0.00606961,1.47607e-07,-0.00299161,-0.000306769,0.0137188,1.20435e-06,5.33133e-07,-0.00670038,0.00723583,118.774,-2.79306,586.052,0.019692,0.00536873,-0.138523,878,536.728,0.25,-0.25,0.0735,-0.00075169,0.00606961,1.47607e-07,-0.00299161,-0.000306769,0.0137188,1.20435e-06,5.33133e-07,-0.00670038,0.00723583,118.774,-2.79306,586.052,0.019692,0.00536873,-0.138523,878,0,0,0,0,0,0,0,0,0,0,0,0,0,0,0,0,0,0,0,0,0,1
stats,66,1,0.67,539.102,0.25,-0.25,0.0735,-0.000776672,0.00616321,5.5866e-09,-0.00311699,-0.00031254,0.0141103,1.39818e-06,5.12484e-07,-0.00696312,0.00768686,118.92,-2.71239,587.708,0.0227312,0.0041763,-1.34995,878,539.102,0.25,-0.25,0.0735,-0.000776672,0.00616321,5.5866e-09,-0.00311699,-0.00031254,0.0141103,1.39818e-06,5.12484e-07,-0.00696312,0.00768686,118.92,-2.71239,587.708,0.0227312,0.0041763,-1.34995,878,539.102,0.25,-0.25,0.0735,-0.000776672,0.00616321,5.5866e-09,-0.00311699,-0.00031254,0.0141103,1.39818e-06,5.12484e-07,-0.00696312,0.00768686,118.92,-2.71239,587.708,0.0227312,0.0041763,-1.34995,878,539.102,0.25,-0.25,0.0735,-0.000776672,0.00616321,5.5866e-09,-0.00311699,-0.00031254,0.0141103,1.39818e-06,5.12484e-07,-0.00696312,0.00768686,118.92,-2.71239,587.708,0.0227312,0.0041763,-1.34995,878,539.102,0.25,-0.25,0.0735,-0.000776672,0.00616321,5.5866e-09,-0.00311699,-0.00031254,0.0141103,1.39818e-06,5.12484e-07,-0.00696312,0.00768686,118.92,-2.71239,587.708,0.0227312,0.0041763,-1.34995,878,539.102,0.25,-0.25,0.0735,-0.000776672,0.00616321,5.5866e-09,-0.00311699,-0.00031254,0.0141103,1.39818e-06,5.12484e-07,-0.00696312,0.00768686,118.92,-2.71239,587.708,0.0227312,0.0041763,-1.34995,878,0,0,0,0,0,0,0,0,0,0,0,0,0,0,0,0,0,0,0,0,0,1
stats,67,1,0.68,541.534,0.25,-0.25,0.0735,-0.00080211,0.00625693,1.51441e-08,-0.0032468,-0.000320733,0.0145135,1.50992e-06,6.03388e-07,-0.00723588,0.00815279,118.902,-2.6778,589.24,0.0232684,0.00635739,-2.754,878,541.534,0.25,-0.25,0.0735,-0.00080211,0.00625693,1.51441e-08,-0.0032468,-0.000320733,0.0145135,1.50992e-06,6.03388e-07,-0.00723588,0.00815279,118.902,-2.6778,589.24,0.0232684,0.00635739,-2.754,878,541.534,0.25,-0.25,0.0735,-0.00080211,0.00625693,1.51441e-08,-0.0032468,-0.000320733,0.0145135,1.50992e-06,6.03388e-07,-0.00723588,0.00815279,118.902,-2.6778,589.24,0.0232684,0.00635739,-2.754,878,541.534,0.25,-0.25,0.0735,-0.00080211,0.00625693,1.51441e-08,-0.0032468,-0.000320733,0.0145135,1.50992e-06,6.03388e-07,-0.00723588,0.00815279,118.902,-2.6778,589.24,0.0232684,0.00635739,-2.754,878,541.534,0.25,-0.25,0.0735,-0.00080211,0.00625693,1.51441e-08,-0.0032468,-0.000320733,0.0145135,1.50992e-06,6.03388e-07,-0.00723588,0.00815279,118.902,-2.6778,589.24,0.0232684,0.00635739,-2.754,878,541.534,0.25,-0.25,0.0735,-0.00080211,0.00625693,1.51441e-08,-0.0032468,-0.000320733,0.0145135,1.50992e-06,6.03388e-07,-0.00723588,0.00815279,118.902,-2.6778,589.24,0.0232684,0.00635739,-2.754,878,0,0,0,0,0,0,0,0,0,0,0,0,0,0,0,0,0,0,0,0,0,1
stats,68,1,0.69,543.999,0.25,-0.25,0.0735,-0.000828543,0.00635086,3.26342e-08,-0.00337743,-0.000327182,0.0149178,1.66122e-06,6.32672e-07,-0.00750777,0.00861886,118.877,-2.60157,590.874,0.0248093,0.00639428,-4.0511,878,543.999,0.25,-0.25,0.0735,-0.000828543,0.00635086,3.26342e-08,-0.00337743,-0.000327182,0.0149178,1.66122e-06,6.32672e-07,-0.00750777,0.00861886,118.877,-2.60157,590.874,0.0248093,0.00639428,-4.0511,878,543.999,0.25,-0.25,0.0735,-0.000828543,0.00635086,3.26342e-08,-0.00337743,-0.000327182,0.0149178,1.66122e-06,6.32672e-07,-0.00750777,0.00861886,118.877,-2.60157,590.874,0.0248093,0.00639428,-4.0511,878,543.999,0.25,-0.25,0.0735,-0.000828543,0.00635086,3.26342e-08,-0.00337743,-0.000327182,0.0149178,1.66122e-06,6.32672e-07,-0.00750777,0.00861886,118.877,-2.60157,590.874,0.0248093,0.00639428,-4.0511,878,543.999,0.25,-0.25,0.0735,-0.000828543,0.00635086,3.26342e-08,-0.00337743,-0.000327182,0.0149178,1.66122e-06,6.32672e-07,-0.00750777,0.00861886,118.877,-2.60157,590.874,0.0248093,0.00639428,-4.0511,878,543.999,0.25,-0.25,0.0735,-0.000828543,0.00635086,3.26342e-08,-0.00337743,-0.000327182,0.0149178,1.66122e-06,6.32672e-07,-0.00750777,0.00861886,118.877,-2.60157,590.874,0.0248093,0.00639428,-4.0511,878,0,0,0,0,0,0,0,0,0,0,0,0,0,0,0,0,0,0,0,0,0,1
stats,69,1,0.7,546.397,0.25,-0.25,0.0735,-0.000855147,0.00644399,-5.64847e-09,-0.00351269,-0.000334951,0.0153332,1.80457e-06,6.6919e-07,-0.00778977,0.00910138,118.662,-2.57994,592.255,0.0258977,0.00671419,-5.52874,878,546.397,0.25,-0.25,0.0735,-0.000855147,0.00644399,-5.64847e-09,-0.00351269,-0.000334951,0.0153332,1.80457e-06,6.6919e-07,-0.00778977,0.00910138,118.662,-2.57994,592.255,0.0258977,0.00671419,-5.52874,878,546.397,0.25,-0.25,0.0735,-0.000855147,0.00644399,-5.64847e-09,-0.00351269,-0.000334951,0.0153332,1.80457e-06,6.6919e-07,-0.00778977,0.00910138,118.662,-2.57994,592.255,0.0258977,0.00671419,-5.52874,878,546.397,0.25,-0.25,0.0735,-0.000855147,0.00644399,-5.64847e-09,-0.00351269,-0.000334951,0.0153332,1.80457e-06,6.6919e-07,-0.00778977,0.00910138,118.662,-2.57994,592.255,0.0258977,0.00671419,-5.52874,878,546.397,0.25,-0.25,0.0735,-0.000855147,0.00644399,-5.64847e-09,-0.00351269,-0.000334951,0.0153332,1.80457e-06,6.6919e-07,-0.00778977,0.00910138,118.662,-2.57994,592.255,0.0258977,0.00671419,-5.52874,878,546.397,0.25,-0.25,0.0735,-0.000855147,0.00644399,-5.64847e-09,-0.00351269,-0.000334951,0.0153332,1.80457e-06,6.6919e-07,-0.00778977,0.00910138,118.662,-2.57994,592.255,0.0258977,0.00671419,-5.52874,878,0,0,0,0,0,0,0,0,0,0,0,0,0,0,0,0,0,0,0,0,0,1
stats,70,1,0.71,548.841,0.25,-0.25,0.0735,-0.000882869,0.00653732,-4.15879e-08,-0.00365008,-0.00034085,0.015755,1.94363e-06,6.59755e-07,-0.00807539,0.00959067,118.44,-2.51761,593.701,0.0267251,0.00571364,-6.97601,878,548.841,0.25,-0.25,0.0735,-0.000882869,0.00653732,-4.15879e-08,-0.00365008,-0.00034085,0.015755,1.94363e-06,6.59755e-07,-0.00807539,0.00959067,118.44,-2.51761,593.701,0.0267251,0.00571364,-6.97601,878,548.841,0.25,-0.25,0.0735,-0.000882869,0.00653732,-4.15879e-08,-0.00365008,-0.00034085,0.015755,1.94363e-06,6.59755e-07,-0.00807539,0.00959067,118.44,-2.51761,593.701,0.0267251,0.00571364,-6.97601,878,548.841,0.25,-0.25,0.0735,-0.000882869,0.00653732,-4.15879e-08,-0.00365008,-0.00034085,0.015755,1.94363e-06,6.59755e-07,-0.00807539,0.00959067,118.44,-2.51761,593.701,0.0267251,0.00571364,-6.97601,878,548.841,0.25,-0.25,0.0735,-0.000882869,0.00653732,-4.15879e-08,-0.00365008,-0.00034085,0.015755,1.94363e-06,6.59755e-07,-0.00807539,0.00959067,118.44,-2.51761,593.701,0.0267251,0.00571364,-6.97601,878,548.841,0.25,-0.25,0.0735,-0.000882869,0.00653732,-4.15879e-08,-0.00365008,-0.00034085,0.015755,1.94363e-06,6.59755e-07,-0.00807539,0.00959067,118.44,-2.51761,593.701,0.0267251,0.00571364,-6.97601,878,0,0,0,0,0,0,0,0,0,0,0,0,0,0,0,0,0,0,0,0,0,1
stats,71,1,0.72,550.989,0.25,-0.25,0.0735,-0.000910814,0.00662949,-4.32275e-08,-0.00379407,-0.000348598,0.016192,2.08185e-06,7.45905e-07,-0.00837333,0.010105,118.051,-2.49653,594.749,0.0272608,0.00740063,-8.48395,878,550.989,0.25,-0.25,0.0735,-0.000910814,0.00662949,-4.32275e-08,-0.00379407,-0.000348598,0.016192,2.08185e-06,7.45905e-07,-0.00837333,0.010105,118.051,-2.49653,594.749,0.0272608,0.00740063,-8.48395,878,550.989,0.25,-0.25,0.0735,-0.000910814,0.00662949,-4.32275e-08,-0.00379407,-0.000348598,0.016192,2.08185e-06,7.45905e-07,-0.00837333,0.010105,118.051,-2.49653,594.749,0.0272608,0.00740063,-8.48395,878,550.989,0.25,-0.25,0.0735,-0.000910814,0.00662949,-4.32275e-08,-0.00379407,-0.000348598,0.016192,2.08185e-06,7.45905e-07,-0.00837333,0.010105,118.051,-2.49653,594.749,0.0272608,0.00740063,-8.48395,878,550.989,0.25,-0.25,0.0735,-0.000910814,0.00662949,-4.32275e-08,-0.00379407,-0.000348598,0.016192,2.08185e-06,7.45905e-07,-0.00837333,0.010105,118.051,-2.49653,594.749,0.0272608,0.00740063,-8.48395,878,550.989,0.25,-0.25,0.0735,-0.000910814,0.00662949,-4.32275e-08,-0.00379407,-0.000348598,0.016192,2.08185e-06,7.45905e-07,-0.00837333,0.010105,118.051,-2.49653,594.749,0.0272608,0.00740063,-8.48395,878,0,0,0,0,0,0,0,0,0,0,0,0,0,0,0,0,0,0,0,0,0,1
stats,72,1,0.73,553.562,0.25,-0.25,0.0735,-0.000939639,0.00672288,-7.08457e-08,-0.00393719,-0.00035422,0.016628,2.21293e-06,7.84687e-07,-0.00866979,0.0106108,117.619,-2.44496,596.15,0.0276831,0.00759892,-10.0887,878,553.562,0.25,-0.25,0.0735,-0.000939639,0.00672288,-7.08457e-08,-0.00393719,-0.00035422,0.016628,2.21293e-06,7.84687e-07,-0.00866979,0.0106108,117.619,-2.44496,596.15,0.0276831,0.00759892,-10.0887,878,553.562,0.25,-0.25,0.0735,-0.000939639,0.00672288,-7.08457e-08,-0.00393719,-0.00035422,0.016628,2.21293e-06,7.84687e-07,-0.00866979,0.0106108,117.619,-2.44496,596.15,0.0276831,0.00759892,-10.0887,878,553.562,0.25,-0.25,0.0735,-0.000939639,0.00672288,-7.08457e-08,-0.00393719,-0.00035422,0.016628,2.21293e-06,7.84687e-07,-0.00866979,0.0106108,117.619,-2.44496,596.15,0.0276831,0.00759892,-10.0887,878,553.562,0.25,-0.25,0.0735,-0.000939639,0.00672288,-7.08457e-08,-0.00393719,-0.00035422,0.016628,2.21293e-06,7.84687e-07,-0.00866979,0.0106108,117.619,-2.44496,596.15,0.0276831,0.00759892,-10.0887,878,553.562,0.25,-0.25,0.0735,-0.000939639,0.00672288,-7.08457e-08,-0.00393719,-0.00035422,0.016628,2.21293e-06,7.84687e-07,-0.00866979,0.0106108,117.619,-2.44496,596.15,0.0276831,0.00759892,-10.0887,878,0,0,0,0,0,0,0,0,0,0,0,0,0,0,0,0,0,0,0,0,0,1
stats,73,1,0.74,555.429,0.25,-0.25,0.0735,-0.00096921,0.00681339,-9.6698e-08,-0.00409195,-0.000362142,0.0170906,2.34575e-06,8.13272e-07,-0.00898647,0.0111625,116.992,-2.45285,596.796,0.0277927,0.00755602,-11.6509,878,555.429,0.25,-0.25,0.0735,-0.00096921,0.00681339,-9.6698e-08,-0.00409195,-0.000362142,0.0170906,2.34575e-06,8.13272e-07,-0.00898647,0.0111625,116.992,-2.45285,596.796,0.0277927,0.00755602,-11.6509,878,555.429,0.25,-0.25,0.0735,-0.00096921,0.00681339,-9.6698e-08,-0.00409195,-0.000362142,0.0170906,2.34575e-06,8.13272e-07,-0.00898647,0.0111625,116.992,-2.45285,596.796,0.0277927,0.00755602,-11.6509,878,555.429,0.25,-0.25,0.0735,-0.00096921,0.00681339,-9.6698e-08,-0.00409195,-0.000362142,0.0170906,2.34575e-06,8.13272e-07,-0.00898647,0.0111625,116.992,-2.45285,596.796,0.0277927,0.00755602,-11.6509,878,555.429,0.25,-0.25,0.0735,-0.00096921,0.00681339,-9.6698e-08,-0.00409195,-0.000362142,0.0170906,2.34575e-06,8.13272e-07,-0.00898647,0.0111625,116.992,-2.45285,596.796,0.0277927,0.00755602,-11.6509,878,555.429,0.25,-0.25,0.0735,-0.00096921,0.00681339,-9.6698e-08,-0.00409195,-0.000362142,0.0170906,2.34575e-06,8.13272e-07,-0.00898647,0.0111625,116.992,-2.45285,596.796,0.0277927,0.00755602,-11.6509,878,0,0,0,0,0,0,0,0,0,0,0,0,0,0,0,0,0,0,0,0,0,1
stats,74,1,0.75,558.053,0.25,-0.25,0.0735,-0.000998908,0.00690768,-1.33484e-07,-0.00423806,-0.000366757,0.0175362,2.45878e-06,8.56234e-07,-0.00929105,0.0116803,116.471,-2.34697,598.138,0.027676,0.00759641,-13.376,878,558.053,0.25,-0.25,0.0735,-0.000998908,0.00690768,-1.33484e-07,-0.00423806,-0.000366757,0.0175362,2.45878e-06,8.56234e-07,-0.00929105,0.0116803,116.471,-2.34697,598.138,0.027676,0.00759641,-13.376,878,558.053,0.25,-0.25,0.0735,-0.000998908,0.00690768,-1.33484e-07,-0.00423806,-0.000366757,0.0175362,2.45878e-06,8.56234e-07,-0.00929105,0.0116803,116.471,-2.34697,598.138,0.027676,0.00759641,-13.376,878,558.053,0.25,-0.25,0.0735,-0.000998908,0.00690768,-1.33484e-07,-0.00423806,-0.000366757,0.0175362,2.45878e-06,8.56234e-07,-0.00929105,0.0116803,116.471,-2.34697,598.138,0.027676,0.00759641,-13.376,878,558.053,0.25,-0.25,0.0735,-0.000998908,0.00690768,-1.33484e-07,-0.00423806,-0.000366757,0.0175362,2.45878e-06,8.56234e-07,-0.00929105,0.0116803,116.471,-2.34697,598.138,0.027676,0.00759641,-13.376,878,558.053,0.25,-0.25,0.0735,-0.000998908,0.00690768,-1.33484e-07,-0.00423806,-0.000366757,0.0175362,2.45878e-06,8.56234e-07,-0.00929105,0.0116803,116.471,-2.34697,598.138,0.027676,0.00759641,-13.376,878,0,0,0,0,0,0,0,0,0,0,0,0,0,0,0,0,0,0,0,0,0,1
stats,75,1,0.76,560.101,0.25,-0.25,0.0735,-0.00103093,0.00699622,-1.65772e-07,-0.00440397,-0.000373378,0.0180248,2.57508e-06,8.80948e-07,-0.00962366,0.0122613,115.588,-2.41274,598.871,0.027141,0.00775571,-14.9585,878,560.101,0.25,-0.25,0.0735,-0.00103093,0.00699622,-1.65772e-07,-0.00440397,-0.000373378,0.0180248,2.57508e-06,8.80948e-07,-0.00962366,0.0122613,115.588,-2.41274,598.871,0.027141,0.00775571,-14.9585,878,560.101,0.25,-0.25,0.0735,-0.00103093,0.00699622,-1.65772e-07,-0.00440397,-0.000373378,0.0180248,2.57508e-06,8.80948e-07,-0.00962366,0.0122613,115.588,-2.41274,598.871,0.027141,0.00775571,-14.9585,878,560.101,0.25,-0.25,0.0735,-0.00103093,0.00699622,-1.65772e-07,-0.00440397,-0.000373378,0.0180248,2.57508e-06,8.80948e-07,-0.00962366,0.0122613,115.588,-2.41274,598.871,0.027141,0.00775571,-14.9585,878,560.101,0.25,-0.25,0.0735,-0.00103093,0.00699622,-1.65772e-07,-0.00440397,-0.000373378,0.0180248,2.57508e-06,8.80948e-07,-0.00962366,0.0122613,115.588,-2.41274,598.871,0.027141,0.00775571,-14.9585,878,560.101,0.25,-0.25,0.0735,-0.00103093,0.00699622,-1.65772e-07,-0.00440397,-0.000373378,0.0180248,2.57508e-06,8.80948e-07,-0.00962366,0.0122613,115.588,-2.41274,598.871,0.027141,0.00775571,-14.9585,878,0,0,0,0,0,0,0,0,0,0,0,0,0,0,0,0,0,0,0,0,0,1
stats,76,1,0.77,562.318,0.25,-0.25,0.0735,-0.00106112,0.0070905,-2.60571e-07,-0.00455186,-0.000378341,0.0184763,2.68457e-06,9.21395e-07,-0.00993455,0.0127938,115.083,-2.25894,599.815,0.0269287,0.00757832,-16.6659,878,562.318,0.25,-0.25,0.0735,-0.00106112,0.0070905,-2.60571e-07,-0.00455186,-0.000378341,0.0184763,2.68457e-06,9.21395e-07,-0.00993455,0.0127938,115.083,-2.25894,599.815,0.0269287,0.00757832,-16.6659,878,562.318,0.25,-0.25,0.0735,-0.00106112,0.0070905,-2.60571e-07,-0.00455186,-0.000378341,0.0184763,2.68457e-06,9.21395e-07,-0.00993455,0.0127938,115.083,-2.25894,599.815,0.0269287,0.00757832,-16.6659,878,562.318,0.25,-0.25,0.0735,-0.00106112,0.0070905,-2.60571e-07,-0.00455186,-0.000378341,0.0184763,2.68457e-06,9.21395e-07,-0.00993455,0.0127938,115.083,-2.25894,599.815,0.0269287,0.00757832,-16.6659,878,562.318,0.25,-0.25,0.0735,-0.00106112,0.0070905,-2.60571e-07,-0.00455186,-0.000378341,0.0184763,2.68457e-06,9.21395e-07,-0.00993455,0.0127938,115.083,-2.25894,599.815,0.0269287,0.00757832,-16.6659,878,562.318,0.25,-0.25,0.0735,-0.00106112,0.0070905,-2.60571e-07,-0.00455186,-0.000378341,0.0184763,2.68457e-06,9.21395e-07,-0.00993455,0.0127938,115.083,-2.25894,599.815,0.0269287,0.00757832,-16.6659,878,0,0,0,0,0,0,0,0,0,0,0,0,0,0,0,0,0,0,0,0,0,1
stats,77,1,0.78,564.452,0.25,-0.25,0.0735,-0.00109466,0.00717645,-2.31447e-07,-0.00473073,-0.000382098,0.0189943,2.77656e-06,9.44944e-07,-0.0102858,0.0134102,113.899,-2.32615,600.51,0.0256299,0.00777148,-18.2918,878,564.452,0.25,-0.25,0.0735,-0.00109466,0.00717645,-2.31447e-07,-0.00473073,-0.000382098,0.0189943,2.77656e-06,9.44944e-07,-0.0102858,0.0134102,113.899,-2.32615,600.51,0.0256299,0.00777148,-18.2918,878,564.452,0.25,-0.25,0.0735,-0.00109466,0.00717645,-2.31447e-07,-0.00473073,-0.000382098,0.0189943,2.77656e-06,9.44944e-07,-0.0102858,0.0134102,113.899,-2.32615,600.51,0.0256299,0.00777148,-18.2918,878,564.452,0.25,-0.25,0.0735,-0.00109466,0.00717645,-2.31447e-07,-0.00473073,-0.000382098,0.0189943,2.77656e-06,9.44944e-07,-0.0102858,0.0134102,113.899,-2.32615,600.51,0.0256299,0.00777148,-18.2918,878,564.452,0.25,-0.25,0.0735,-0.00109466,0.00717645,-2.31447e-07,-0.00473073,-0.000382098,0.0189943,2.77656e-06,9.44944e-07,-0.0102858,0.0134102,113.899,-2.32615,600.51,0.0256299,0.00777148,-18.2918,878,564.452,0.25,-0.25,0.0735,-0.00109466,0.00717645,-2.31447e-07,-0.00473073,-0.000382098,0.0189943,2.77656e-06,9.44944e-07,-0.0102858,0.0134102,113.899,-2.32615,600.51,0.0256299,0.00777148,-18.2918,878,0,0,0,0,0,0,0,0,0,0,0,0,0,0,0,0,0,0,0,0,0,1
stats,78,1,0.79,566.434,0.25,-0.25,0.0735,-0.00112398,0.0072722,-2.72074e-07,-0.00487041,-0.000386801,0.0194291,2.8869e-06,9.88569e-07,-0.0105876,0.0139259,113.612,-2.10469,601.3,0.025845,0.00733402,-19.975,878,566.434,0.25,-0.25,0.0735,-0.00112398,0.0072722,-2.72074e-07,-0.00487041,-0.000386801,0.0194291,2.8869e-06,9.88569e-07,-0.0105876,0.0139259,113.612,-2.10469,601.3,0.025845,0.00733402,-19.975,878,566.434,0.25,-0.25,0.0735,-0.00112398,0.0072722,-2.72074e-07,-0.00487041,-0.000386801,0.0194291,2.8869e-06,9.88569e-07,-0.0105876,0.0139259,113.612,-2.10469,601.3,0.025845,0.00733402,-19.975,878,566.434,0.25,-0.25,0.0735,-0.00112398,0.0072722,-2.72074e-07,-0.00487041,-0.000386801,0.0194291,2.8869e-06,9.88569e-07,-0.0105876,0.0139259,113.612,-2.10469,601.3,0.025845,0.00733402,-19.975,878,566.434,0.25,-0.25,0.0735,-0.00112398,0.0072722,-2.72074e-07,-0.00487041,-0.000386801,0.0194291,2.8869e-06,9.88569e-07,-0.0105876,0.0139259,113.612,-2.10469,601.3,0.025845,0.00733402,-19.975,878,566.434,0.25,-0.25,0.0735,-0.00112398,0.0072722,-2.72074e-07,-0.00487041,-0.000386801,0.0194291,2.8869e-06,9.88569e-07,-0.0105876,0.0139259,113.612,-2.10469,601.3,0.025845,0.00733402,-19.975,878,0,0,0,0,0,0,0,0,0,0,0,0,0,0,0,0,0,0,0,0,0,1
stats,79,1,0.8,568.074,0.25,-0.25,0.0735,-0.00116185,0.00735436,-3.14635e-07,-0.00507253,-0.000391799,0.0200033,2.92967e-06,9.86413e-07,-0.0109765,0.0146207,112.107,-2.26616,601.424,0.0230107,0.00707045,-21.5451,878,568.074,0.25,-0.25,0.0735,-0.00116185,0.00735436,-3.14635e-07,-0.00507253,-0.000391799,0.0200033,2.92967e-06,9.86413e-07,-0.0109765,0.0146207,112.107,-2.26616,601.424,0.0230107,0.00707045,-21.5451,878,568.074,0.25,-0.25,0.0735,-0.00116185,0.00735436,-3.14635e-07,-0.00507253,-0.000391799,0.0200033,2.92967e-06,9.86413e-07,-0.0109765,0.0146207,112.107,-2.26616,601.424,0.0230107,0.00707045,-21.5451,878,568.074,0.25,-0.25,0.0735,-0.00116185,0.00735436,-3.14635e-07,-0.00507253,-0.000391799,0.0200033,2.92967e-06,9.86413e-07,-0.0109765,0.0146207,112.107,-2.26616,601.424,0.0230107,0.00707045,-21.5451,878,568.074,0.25,-0.25,0.0735,-0.00116185,0.00735436,-3.14635e-07,-0.00507253,-0.000391799,0.0200033,2.92967e-06,9.86413e-07,-0.0109765,0.0146207,112.107,-2.26616,601.424,0.0230107,0.00707045,-21.5451,878,568.074,0.25,-0.25,0.0735,-0.00116185,0.00735436,-3.14635e-07,-0.00507253,-0.000391799,0.0200033,2.92967e-06,9.86413e-07,-0.0109765,0.0146207,112.107,-2.26616,601.424,0.0230107,0.00707045,-21.5451,878,0,0,0,0,0,0,0,0,0,0,0,0,0,0,0,0,0,0,0,0,0,1
stats,80,1,0.81,570.806,0.25,-0.25,0.0735,-0.00118902,0.00745102,-3.56164e-07,-0.00519782,-0.000393591,0.0204062,3.03697e-06,1.03627e-06,-0.0112537,0.0150828,112.1,-1.98517,603.124,0.0235212,0.00691798,-23.1505,878,570.806,0.25,-0.25,0.0735,-0.00118902,0.00745102,-3.56164e-07,-0.00519782,-0.000393591,0.0204062,3.03697e-06,1.03627e-06,-0.0112537,0.0150828,112.1,-1.98517,603.124,0.0235212,0.00691798,-23.1505,878,570.806,0.25,-0.25,0.0735,-0.00118902,0.00745102,-3.56164e-07,-0.00519782,-0.000393591,0.0204062,3.03697e-06,1.03627e-06,-0.0112537,0.0150828,112.1,-1.98517,603.124,0.0235212,0.00691798,-23.1505,878,570.806,0.25,-0.25,0.0735,-0.00118902,0.00745102,-3.56164e-07,-0.00519782,-0.000393591,0.0204062,3.03697e-06,1.03627e-06,-0.0112537,0.0150828,112.1,-1.98517,603.124,0.0235212,0.00691798,-23.1505,878,570.806,0.25,-0.25,0.0735,-0.00118902,0.00745102,-3.56164e-07,-0.00519782,-0.000393591,0.0204062,3.03697e-06,1.03627e-06,-0.0112537,0.0150828,112.1,-1.98517,603.124,0.0235212,0.00691798,-23.1505,878,570.806,0.25,-0.25,0.0735,-0.00118902,0.00745102,-3.56164e-07,-0.00519782,-0.000393591,0.0204062,3.03697e-06,1.03627e-06,-0.0112537,0.0150828,112.1,-1.98517,603.124,0.0235212,0.00691798,-23.1505,878,0,0,0,0,0,0,0,0,0,0,0,0,0,0,0,0,0,0,0,0,0,1
stats,81,1,0.82,571.49,0.25,-0.25,0.0735,-0.00122902,0.0075307,-3.60633e-07,-0.00542011,-0.000403137,0.0210264,3.05918e-06,1.02242e-06,-0.0116789,0.0158535,110.185,-2.27712,602.016,0.0202867,0.00621393,-24.9,878,571.49,0.25,-0.25,0.0735,-0.00122902,0.0075307,-3.60633e-07,-0.00542011,-0.000403137,0.0210264,3.05918e-06,1.02242e-06,-0.0116789,0.0158535,110.185,-2.27712,602.016,0.0202867,0.00621393,-24.9,878,571.49,0.25,-0.25,0.0735,-0.00122902,0.0075307,-3.60633e-07,-0.00542011,-0.000403137,0.0210264,3.05918e-06,1.02242e-06,-0.0116789,0.0158535,110.185,-2.27712,602.016,0.0202867,0.00621393,-24.9,878,571.49,0.25,-0.25,0.0735,-0.00122902,0.0075307,-3.60633e-07,-0.00542011,-0.000403137,0.0210264,3.05918e-06,1.02242e-06,-0.0116789,0.0158535,110.185,-2.27712,602.016,0.0202867,0.00621393,-24.9,878,571.49,0.25,-0.25,0.0735,-0.00122902,0.0075307,-3.60633e-07,-0.00542011,-0.000403137,0.0210264,3.05918e-06,1.02242e-06,-0.0116789,0.0158535,110.185,-2.27712,602.016,0.0202867,0.00621393,-24.9,878,571.49,0.25,-0.25,0.0735,-0.00122902,0.0075307,-3.60633e-07,-0.00542011,-0.000403137,0.0210264,3.05918e-06,1.02242e-06,-0.0116789,0.0158535,110.185,-2.27712,602.016,0.0202867,0.00621393,-24.9,878,0,0,0,0,0,0,0,0,0,0,0,0,0,0,0,0,0,0,0,0,0,1
stats,82,1,0.83,574.004,0.25,-0.25,0.0735,-0.0012571,0.00762726,-4.32564e-07,-0.00554831,-0.000398764,0.0214352,3.1453e-06,1.03392e-06,-0.0119608,0.0163267,110.087,-1.85528,603.477,0.0204881,0.00494879,-26.4876,878,574.004,0.25,-0.25,0.0735,-0.0012571,0.00762726,-4.32564e-07,-0.00554831,-0.000398764,0.0214352,3.1453e-06,1.03392e-06,-0.0119608,0.0163267,110.087,-1.85528,603.477,0.0204881,0.00494879,-26.4876,878,574.004,0.25,-0.25,0.0735,-0.0012571,0.00762726,-4.32564e-07,-0.00554831,-0.000398764,0.0214352,3.1453e-06,1.03392e-06,-0.0119608,0.0163267,110.087,-1.85528,603.477,0.0204881,0.00494879,-26.4876,878,574.004,0.25,-0.25,0.0735,-0.0012571,0.00762726,-4.32564e-07,-0.00554831,-0.000398764,0.0214352,3.1453e-06,1.03392e-06,-0.0119608,0.0163267,110.087,-1.85528,603.477,0.0204881,0.00494879,-26.4876,878,574.004,0.25,-0.25,0.0735,-0.0012571,0.00762726,-4.32564e-07,-0.00554831,-0.000398764,0.0214352,3.1453e-06,1.03392e-06,-0.0119608,0.0163267,110.087,-1.85528,603.477,0.0204881,0.00494879,-26.4876,878,574.004,0.25,-0.25,0.0735,-0.0012571,0.00762726,-4.32564e-07,-0.00554831,-0.000398764,0.0214352,3.1453e-06,1.03392e-06,-0.0119608,0.0163267,110.087,-1.85528,603.477,0.0204881,0.00494879,-26.4876,878,0,0,0,0,0,0,0,0,0,0,0,0,0,0,0,0,0,0,0,0,0,1
stats,83,1,0.84,575.012,0.25,-0.25,0.0735,-0.00129708,0.00770465,-4.16626e-07,-0.00577488,-0.000407679,0.0220653,3.16957e-06,1.06517e-06,-0.0123905,0.017104,108.093,-2.17125,602.66,0.017747,0.00568404,-28.2595,878,575.012,0.25,-0.25,0.0735,-0.00129708,0.00770465,-4.16626e-07,-0.00577488,-0.000407679,0.0220653,3.16957e-06,1.06517e-06,-0.0123905,0.017104,108.093,-2.17125,602.66,0.017747,0.00568404,-28.2595,878,575.012,0.25,-0.25,0.0735,-0.00129708,0.00770465,-4.16626e-07,-0.00577488,-0.000407679,0.0220653,3.16957e-06,1.06517e-06,-0.0123905,0.017104,108.093,-2.17125,602.66,0.017747,0.00568404,-28.2595,878,575.012,0.25,-0.25,0.0735,-0.00129708,0.00770465,-4.16626e-07,-0.00577488,-0.000407679,0.0220653,3.16957e-06,1.06517e-06,-0.0123905,0.017104,108.093,-2.17125,602.66,0.017747,0.00568404,-28.2595,878,575.012,0.25,-0.25,0.0735,-0.00129708,0.00770465,-4.16626e-07,-0.00577488,-0.000407679,0.0220653,3.16957e-06,1.06517e-06,-0.0123905,0.017104,108.093,-2.17125,602.66,0.017747,0.00568404,-28.2595,878,575.012,0.25,-0.25,0.0735,-0.00129708,0.00770465,-4.16626e-07,-0.00577488,-0.000407679,0.0220653,3.16957e-06,1.06517e-06,-0.0123905,0.017104,108.093,-2.17125,602.66,0.017747,0.00568404,-28.2595,878,0,0,0,0,0,0,0,0,0,0,0,0,0,0,0,0,0,0,0,0,0,1
stats,84,1,0.85,577.343,0.25,-0.25,0.0735,-0.00132596,0.00780129,-5.24305e-07,-0.00590763,-0.000402512,0.0224855,3.24557e-06,1.07953e-06,-0.0126814,0.017595,107.905,-1.76544,603.873,0.0178545,0.00449853,-29.8924,878,577.343,0.25,-0.25,0.0735,-0.00132596,0.00780129,-5.24305e-07,-0.00590763,-0.000402512,0.0224855,3.24557e-06,1.07953e-06,-0.0126814,0.017595,107.905,-1.76544,603.873,0.0178545,0.00449853,-29.8924,878,577.343,0.25,-0.25,0.0735,-0.00132596,0.00780129,-5.24305e-07,-0.00590763,-0.000402512,0.0224855,3.24557e-06,1.07953e-06,-0.0126814,0.017595,107.905,-1.76544,603.873,0.0178545,0.00449853,-29.8924,878,577.343,0.25,-0.25,0.0735,-0.00132596,0.00780129,-5.24305e-07,-0.00590763,-0.000402512,0.0224855,3.24557e-06,1.07953e-06,-0.0126814,0.017595,107.905,-1.76544,603.873,0.0178545,0.00449853,-29.8924,878,577.343,0.25,-0.25,0.0735,-0.00132596,0.00780129,-5.24305e-07,-0.00590763,-0.000402512,0.0224855,3.24557e-06,1.07953e-06,-0.0126814,0.017595,107.905,-1.76544,603.873,0.0178545,0.00449853,-29.8924,878,577.343,0.25,-0.25,0.0735,-0.00132596,0.00780129,-5.24305e-07,-0.00590763,-0.000402512,0.0224855,3.24557e-06,1.07953e-06,-0.0126814,0.017595,107.905,-1.76544,603.873,0.0178545,0.00449853,-29.8924,878,0,0,0,0,0,0,0,0,0,0,0,0,0,0,0,0,0,0,0,0,0,1
stats,85,1,0.86,578.26,0.25,-0.25,0.0735,-0.00136658,0.00787613,-5.02991e-07,-0.00614097,-0.000412866,0.0231318,3.25614e-06,1.09527e-06,-0.0131217,0.0183941,105.842,-2.1236,602.935,0.0151433,0.00502573,-31.6755,878,578.26,0.25,-0.25,0.0735,-0.00136658,0.00787613,-5.02991e-07,-0.00614097,-0.000412866,0.0231318,3.25614e-06,1.09527e-06,-0.0131217,0.0183941,105.842,-2.1236,602.935,0.0151433,0.00502573,-31.6755,878,578.26,0.25,-0.25,0.0735,-0.00136658,0.00787613,-5.02991e-07,-0.00614097,-0.000412866,0.0231318,3.25614e-06,1.09527e-06,-0.0131217,0.0183941,105.842,-2.1236,602.935,0.0151433,0.00502573,-31.6755,878,578.26,0.25,-0.25,0.0735,-0.00136658,0.00787613,-5.02991e-07,-0.00614097,-0.000412866,0.0231318,3.25614e-06,1.09527e-06,-0.0131217,0.0183941,105.842,-2.1236,602.935,0.0151433,0.00502573,-31.6755,878,578.26,0.25,-0.25,0.0735,-0.00136658,0.00787613,-5.02991e-07,-0.00614097,-0.000412866,0.0231318,3.25614e-06,1.09527e-06,-0.0131217,0.0183941,105.842,-2.1236,602.935,0.0151433,0.00502573,-31.6755,878,578.26,0.25,-0.25,0.0735,-0.00136658,0.00787613,-5.02991e-07,-0.00614097,-0.000412866,0.0231318,3.25614e-06,1.09527e-06,-0.0131217,0.0183941,105.842,-2.1236,602.935,0.0151433,0.00502573,-31.6755,878,0,0,0,0,0,0,0,0,0,0,0,0,0,0,0,0,0,0,0,0,0,1
stats,86,1,0.87,580.706,0.25,-0.25,0.0735,-0.00139658,0.00797432,-5.45847e-07,-0.00628077,-0.000403189,0.0235668,3.36196e-06,1.13772e-06,-0.0134236,0.0189028,105.367,-1.60451,604.05,0.0162232,0.00443452,-33.4896,878,580.706,0.25,-0.25,0.0735,-0.00139658,0.00797432,-5.45847e-07,-0.00628077,-0.000403189,0.0235668,3.36196e-06,1.13772e-06,-0.0134236,0.0189028,105.367,-1.60451,604.05,0.0162232,0.00443452,-33.4896,878,580.706,0.25,-0.25,0.0735,-0.00139658,0.00797432,-5.45847e-07,-0.00628077,-0.000403189,0.0235668,3.36196e-06,1.13772e-06,-0.0134236,0.0189028,105.367,-1.60451,604.05,0.0162232,0.00443452,-33.4896,878,580.706,0.25,-0.25,0.0735,-0.00139658,0.00797432,-5.45847e-07,-0.00628077,-0.000403189,0.0235668,3.36196e-06,1.13772e-06,-0.0134236,0.0189028,105.367,-1.60451,604.05,0.0162232,0.00443452,-33.4896,878,580.706,0.25,-0.25,0.0735,-0.00139658,0.00797432,-5.45847e-07,-0.00628077,-0.000403189,0.0235668,3.36196e-06,1.13772e-06,-0.0134236,0.0189028,105.367,-1.60451,604.05,0.0162232,0.00443452,-33.4896,878,580.706,0.25,-0.25,0.0735,-0.00139658,0.00797432,-5.45847e-07,-0.00628077,-0.000403189,0.0235668,3.36196e-06,1.13772e-06,-0.0134236,0.0189028,105.367,-1.60451,604.05,0.0162232,0.00443452,-33.4896,878,0,0,0,0,0,0,0,0,0,0,0,0,0,0,0,0,0,0,0,0,0,1
stats,87,1,0.88,581.591,0.25,-0.25,0.0735,-0.00143649,0.00804482,-5.83842e-07,-0.00651553,-0.00041473,0.0242141,3.32896e-06,1.1329e-06,-0.0138617,0.0197025,103.352,-2.04868,603.211,0.0128743,0.00470835,-35.1011,878,581.591,0.25,-0.25,0.0735,-0.00143649,0.00804482,-5.83842e-07,-0.00651553,-0.00041473,0.0242141,3.32896e-06,1.1329e-06,-0.0138617,0.0197025,103.352,-2.04868,603.211,0.0128743,0.00470835,-35.1011,878,581.591,0.25,-0.25,0.0735,-0.00143649,0.00804482,-5.83842e-07,-0.00651553,-0.00041473,0.0242141,3.32896e-06,1.1329e-06,-0.0138617,0.0197025,103.352,-2.04868,603.211,0.0128743,0.00470835,-35.1011,878,581.591,0.25,-0.25,0.0735,-0.00143649,0.00804482,-5.83842e-07,-0.00651553,-0.00041473,0.0242141,3.32896e-06,1.1329e-06,-0.0138617,0.0197025,103.352,-2.04868,603.211,0.0128743,0.00470835,-35.1011,878,581.591,0.25,-0.25,0.0735,-0.00143649,0.00804482,-5.83842e-07,-0.00651553,-0.00041473,0.0242141,3.32896e-06,1.1329e-06,-0.0138617,0.0197025,103.352,-2.04868,603.211,0.0128743,0.00470835,-35.1011,878,581.591,0.25,-0.25,0.0735,-0.00143649,0.00804482,-5.83842e-07,-0.00651553,-0.00041473,0.0242141,3.32896e-06,1.1329e-06,-0.0138617,0.0197025,103.352,-2.04868,603.211,0.0128743,0.00470835,-35.1011,878,0,0,0,0,0,0,0,0,0,0,0,0,0,0,0,0,0,0,0,0,0,1
stats,88,1,0.89,583.956,0.25,-0.25,0.0735,-0.00146841,0.00814392,-6.37189e-07,-0.00666305,-0.000404388,0.0246698,3.40328e-06,1.17021e-06,-0.0141785,0.0202391,102.782,-1.53178,604.164,0.0132568,0.00381959,-36.9874,878,583.956,0.25,-0.25,0.0735,-0.00146841,0.00814392,-6.37189e-07,-0.00666305,-0.000404388,0.0246698,3.40328e-06,1.17021e-06,-0.0141785,0.0202391,102.782,-1.53178,604.164,0.0132568,0.00381959,-36.9874,878,583.956,0.25,-0.25,0.0735,-0.00146841,0.00814392,-6.37189e-07,-0.00666305,-0.000404388,0.0246698,3.40328e-06,1.17021e-06,-0.0141785,0.0202391,102.782,-1.53178,604.164,0.0132568,0.00381959,-36.9874,878,583.956,0.25,-0.25,0.0735,-0.00146841,0.00814392,-6.37189e-07,-0.00666305,-0.000404388,0.0246698,3.40328e-06,1.17021e-06,-0.0141785,0.0202391,102.782,-1.53178,604.164,0.0132568,0.00381959,-36.9874,878,583.956,0.25,-0.25,0.0735,-0.00146841,0.00814392,-6.37189e-07,-0.00666305,-0.000404388,0.0246698,3.40328e-06,1.17021e-06,-0.0141785,0.0202391,102.782,-1.53178,604.164,0.0132568,0.00381959,-36.9874,878,583.956,0.25,-0.25,0.0735,-0.00146841,0.00814392,-6.37189e-07,-0.00666305,-0.000404388,0.0246698,3.40328e-06,1.17021e-06,-0.0141785,0.0202391,102.782,-1.53178,604.164,0.0132568,0.00381959,-36.9874,878,0,0,0,0,0,0,0,0,0,0,0,0,0,0,0,0,0,0,0,0,0,1
stats,89,1,0.9,584.581,0.25,-0.25,0.0735,-0.00150722,0.00820964,-6.20051e-07,-0.00689997,-0.000424311,0.0253234,3.36992e-06,1.16724e-06,-0.0146213,0.0210509,100.861,-2.21363,603.095,0.0103638,0.00433991,-38.586,878,584.581,0.25,-0.25,0.0735,-0.00150722,0.00820964,-6.20051e-07,-0.00689997,-0.000424311,0.0253234,3.36992e-06,1.16724e-06,-0.0146213,0.0210509,100.861,-2.21363,603.095,0.0103638,0.00433991,-38.586,878,584.581,0.25,-0.25,0.0735,-0.00150722,0.00820964,-6.20051e-07,-0.00689997,-0.000424311,0.0253234,3.36992e-06,1.16724e-06,-0.0146213,0.0210509,100.861,-2.21363,603.095,0.0103638,0.00433991,-38.586,878,584.581,0.25,-0.25,0.0735,-0.00150722,0.00820964,-6.20051e-07,-0.00689997,-0.000424311,0.0253234,3.36992e-06,1.16724e-06,-0.0146213,0.0210509,100.861,-2.21363,603.095,0.0103638,0.00433991,-38.586,878,584.581,0.25,-0.25,0.0735,-0.00150722,0.00820964,-6.20051e-07,-0.00689997,-0.000424311,0.0253234,3.36992e-06,1.16724e-06,-0.0146213,0.0210509,100.861,-2.21363,603.095,0.0103638,0.00433991,-38.586,878,584.581,0.25,-0.25,0.0735,-0.00150722,0.00820964,-6.20051e-07,-0.00689997,-0.000424311,0.0253234,3.36992e-06,1.16724e-06,-0.0146213,0.0210509,100.861,-2.21363,603.095,0.0103638,0.00433991,-38.586,878,0,0,0,0,0,0,0,0,0,0,0,0,0,0,0,0,0,0,0,0,0,1
stats,90,1,0.91,586.874,0.25,-0.25,0.0735,-0.00154166,0.00831164,-6.54994e-07,-0.00705652,-0.000403693,0.0257974,3.43449e-06,1.23418e-06,-0.0149513,0.0216126,99.9736,-1.4144,603.796,0.0108127,0.00419127,-40.5907,878,586.874,0.25,-0.25,0.0735,-0.00154166,0.00831164,-6.54994e-07,-0.00705652,-0.000403693,0.0257974,3.43449e-06,1.23418e-06,-0.0149513,0.0216126,99.9736,-1.4144,603.796,0.0108127,0.00419127,-40.5907,878,586.874,0.25,-0.25,0.0735,-0.00154166,0.00831164,-6.54994e-07,-0.00705652,-0.000403693,0.0257974,3.43449e-06,1.23418e-06,-0.0149513,0.0216126,99.9736,-1.4144,603.796,0.0108127,0.00419127,-40.5907,878,586.874,0.25,-0.25,0.0735,-0.00154166,0.00831164,-6.54994e-07,-0.00705652,-0.000403693,0.0257974,3.43449e-06,1.23418e-06,-0.0149513,0.0216126,99.9736,-1.4144,603.796,0.0108127,0.00419127,-40.5907,878,586.874,0.25,-0.25,0.0735,-0.00154166,0.00831164,-6.54994e-07,-0.00705652,-0.000403693,0.0257974,3.43449e-06,1.23418e-06,-0.0149513,0.0216126,99.9736,-1.4144,603.796,0.0108127,0.00419127,-40.5907,878,586.874,0.25,-0.25,0.0735,-0.00154166,0.00831164,-6.54994e-07,-0.00705652,-0.000403693,0.0257974,3.43449e-06,1.23418e-06,-0.0149513,0.0216126,99.9736,-1.4144,603.796,0.0108127,0.00419127,-40.5907,878,0,0,0,0,0,0,0,0,0,0,0,0,0,0,0,0,0,0,0,0,0,1
stats,91,1,0.92,587.408,0.25,-0.25,0.0735,-0.00157888,0.00837441,-6.85232e-07,-0.00728947,-0.000428211,0.0264421,3.3984e-06,1.21411e-06,-0.0153863,0.0224139,98.3158,-2.24653,602.824,0.00839257,0.0044312,-42.0317,878,587.408,0.25,-0.25,0.0735,-0.00157888,0.00837441,-6.85232e-07,-0.00728947,-0.000428211,0.0264421,3.3984e-06,1.21411e-06,-0.0153863,0.0224139,98.3158,-2.24653,602.824,0.00839257,0.0044312,-42.0317,878,587.408,0.25,-0.25,0.0735,-0.00157888,0.00837441,-6.85232e-07,-0.00728947,-0.000428211,0.0264421,3.3984e-06,1.21411e-06,-0.0153863,0.0224139,98.3158,-2.24653,602.824,0.00839257,0.0044312,-42.0317,878,587.408,0.25,-0.25,0.0735,-0.00157888,0.00837441,-6.85232e-07,-0.00728947,-0.000428211,0.0264421,3.3984e-06,1.21411e-06,-0.0153863,0.0224139,98.3158,-2.24653,602.824,0.00839257,0.0044312,-42.0317,878,587.408,0.25,-0.25,0.0735,-0.00157888,0.00837441,-6.85232e-07,-0.00728947,-0.000428211,0.0264421,3.3984e-06,1.21411e-06,-0.0153863,0.0224139,98.3158,-2.24653,602.824,0.00839257,0.0044312,-42.0317,878,587.408,0.25,-0.25,0.0735,-0.00157888,0.00837441,-6.85232e-07,-0.00728947,-0.000428211,0.0264421,3.3984e-06,1.21411e-06,-0.0153863,0.0224139,98.3158,-2.24653,602.824,0.00839257,0.0044312,-42.0317,878,0,0,0,0,0,0,0,0,0,0,0,0,0,0,0,0,0,0,0,0,0,1
stats,92,1,0.93,589.622,0.25,-0.25,0.0735,-0.00161596,0.00847658,-6.1705e-07,-0.00745538,-0.000402454,0.0269399,3.49255e-06,1.30218e-06,-0.0157327,0.0230069,97.2849,-1.34296,603.362,0.0098126,0.0046983,-44.0919,878,589.622,0.25,-0.25,0.0735,-0.00161596,0.00847658,-6.1705e-07,-0.00745538,-0.000402454,0.0269399,3.49255e-06,1.30218e-06,-0.0157327,0.0230069,97.2849,-1.34296,603.362,0.0098126,0.0046983,-44.0919,878,589.622,0.25,-0.25,0.0735,-0.00161596,0.00847658,-6.1705e-07,-0.00745538,-0.000402454,0.0269399,3.49255e-06,1.30218e-06,-0.0157327,0.0230069,97.2849,-1.34296,603.362,0.0098126,0.0046983,-44.0919,878,589.622,0.25,-0.25,0.0735,-0.00161596,0.00847658,-6.1705e-07,-0.00745538,-0.000402454,0.0269399,3.49255e-06,1.30218e-06,-0.0157327,0.0230069,97.2849,-1.34296,603.362,0.0098126,0.0046983,-44.0919,878,589.622,0.25,-0.25,0.0735,-0.00161596,0.00847658,-6.1705e-07,-0.00745538,-0.000402454,0.0269399,3.49255e-06,1.30218e-06,-0.0157327,0.0230069,97.2849,-1.34296,603.362,0.0098126,0.0046983,-44.0919,878,589.622,0.25,-0.25,0.0735,-0.00161596,0.00847658,-6.1705e-07,-0.00745538,-0.000402454,0.0269399,3.49255e-06,1.30218e-06,-0.0157327,0.0230069,97.2849,-1.34296,603.362,0.0098126,0.0046983,-44.0919,878,0,0,0,0,0,0,0,0,0,0,0,0,0,0,0,0,0,0,0,0,0,1
stats,93,1,0.94,590.215,0.25,-0.25,0.0735,-0.00165197,0.00853864,-7.80155e-07,-0.00768753,-0.000429548,0.0275797,3.41791e-06,1.26443e-06,-0.0161634,0.0238009,95.6151,-2.23404,602.445,0.00668445,0.00435852,-45.5346,878,590.215,0.25,-0.25,0.0735,-0.00165197,0.00853864,-7.80155e-07,-0.00768753,-0.000429548,0.0275797,3.41791e-06,1.26443e-06,-0.0161634,0.0238009,95.6151,-2.23404,602.445,0.00668445,0.00435852,-45.5346,878,590.215,0.25,-0.25,0.0735,-0.00165197,0.00853864,-7.80155e-07,-0.00768753,-0.000429548,0.0275797,3.41791e-06,1.26443e-06,-0.0161634,0.0238009,95.6151,-2.23404,602.445,0.00668445,0.00435852,-45.5346,878,590.215,0.25,-0.25,0.0735,-0.00165197,0.00853864,-7.80155e-07,-0.00768753,-0.000429548,0.0275797,3.41791e-06,1.26443e-06,-0.0161634,0.0238009,95.6151,-2.23404,602.445,0.00668445,0.00435852,-45.5346,878,590.215,0.25,-0.25,0.0735,-0.00165197,0.00853864,-7.80155e-07,-0.00768753,-0.000429548,0.0275797,3.41791e-06,1.26443e-06,-0.0161634,0.0238009,95.6151,-2.23404,602.445,0.00668445,0.00435852,-45.5346,878,590.215,0.25,-0.25,0.0735,-0.00165197,0.00853864,-7.80155e-07,-0.00768753,-0.000429548,0.0275797,3.41791e-06,1.26443e-06,-0.0161634,0.0238009,95.6151,-2.23404,602.445,0.00668445,0.00435852,-45.5346,878,0,0,0,0,0,0,0,0,0,0,0,0,0,0,0,0,0,0,0,0,0,1
stats,94,1,0.95,592.184,0.25,-0.25,0.0735,-0.00168994,0.00863931,-7.87592e-07,-0.00785918,-0.000403804,0.0280916,3.49751e-06,1.31171e-06,-0.0165201,0.0244163,94.5313,-1.34999,602.715,0.00782885,0.0035862,-47.5947,878,592.184,0.25,-0.25,0.0735,-0.00168994,0.00863931,-7.87592e-07,-0.00785918,-0.000403804,0.0280916,3.49751e-06,1.31171e-06,-0.0165201,0.0244163,94.5313,-1.34999,602.715,0.00782885,0.0035862,-47.5947,878,592.184,0.25,-0.25,0.0735,-0.00168994,0.00863931,-7.87592e-07,-0.00785918,-0.000403804,0.0280916,3.49751e-06,1.31171e-06,-0.0165201,0.0244163,94.5313,-1.34999,602.715,0.00782885,0.0035862,-47.5947,878,592.184,0.25,-0.25,0.0735,-0.00168994,0.00863931,-7.87592e-07,-0.00785918,-0.000403804,0.0280916,3.49751e-06,1.31171e-06,-0.0165201,0.0244163,94.5313,-1.34999,602.715,0.00782885,0.0035862,-47.5947,878,592.184,0.25,-0.25,0.0735,-0.00168994,0.00863931,-7.87592e-07,-0.00785918,-0.000403804,0.0280916,3.49751e-06,1.31171e-06,-0.0165201,0.0244163,94.5313,-1.34999,602.715,0.00782885,0.0035862,-47.5947,878,592.184,0.25,-0.25,0.0735,-0.00168994,0.00863931,-7.87592e-07,-0.00785918,-0.000403804,0.0280916,3.49751e-06,1.31171e-06,-0.0165201,0.0244163,94.5313,-1.34999,602.715,0.00782885,0.0035862,-47.5947,878,0,0,0,0,0,0,0,0,0,0,0,0,0,0,0,0,0,0,0,0,0,1
stats,95,1,0.96,592.739,0.25,-0.25,0.0735,-0.00172584,0.00870174,-7.86058e-07,-0.00809137,-0.000429995,0.0287296,3.44775e-06,1.3195e-06,-0.0169488,0.0252085,92.8776,-2.18986,601.788,0.00574202,0.00455722,-49.0048,878,592.739,0.25,-0.25,0.0735,-0.00172584,0.00870174,-7.86058e-07,-0.00809137,-0.000429995,0.0287296,3.44775e-06,1.3195e-06,-0.0169488,0.0252085,92.8776,-2.18986,601.788,0.00574202,0.00455722,-49.0048,878,592.739,0.25,-0.25,0.0735,-0.00172584,0.00870174,-7.86058e-07,-0.00809137,-0.000429995,0.0287296,3.44775e-06,1.3195e-06,-0.0169488,0.0252085,92.8776,-2.18986,601.788,0.00574202,0.00455722,-49.0048,878,592.739,0.25,-0.25,0.0735,-0.00172584,0.00870174,-7.86058e-07,-0.00809137,-0.000429995,0.0287296,3.44775e-06,1.3195e-06,-0.0169488,0.0252085,92.8776,-2.18986,601.788,0.00574202,0.00455722,-49.0048,878,592.739,0.25,-0.25,0.0735,-0.00172584,0.00870174,-7.86058e-07,-0.00809137,-0.000429995,0.0287296,3.44775e-06,1.3195e-06,-0.0169488,0.0252085,92.8776,-2.18986,601.788,0.00574202,0.00455722,-49.0048,878,592.739,0.25,-0.25,0.0735,-0.00172584,0.00870174,-7.86058e-07,-0.00809137,-0.000429995,0.0287296,3.44775e-06,1.3195e-06,-0.0169488,0.0252085,92.8776,-2.18986,601.788,0.00574202,0.00455722,-49.0048,878,0,0,0,0,0,0,0,0,0,0,0,0,0,0,0,0,0,0,0,0,0,1
stats,96,1,0.97,594.626,0.25,-0.25,0.0735,-0.00176419,0.00880027,-8.1608e-07,-0.00826698,-0.000407662,0.0292535,3.54954e-06,1.35888e-06,-0.0173143,0.0258403,91.7727,-1.40204,601.951,0.00749478,0.00372255,-51.0873,878,594.626,0.25,-0.25,0.0735,-0.00176419,0.00880027,-8.1608e-07,-0.00826698,-0.000407662,0.0292535,3.54954e-06,1.35888e-06,-0.0173143,0.0258403,91.7727,-1.40204,601.951,0.00749478,0.00372255,-51.0873,878,594.626,0.25,-0.25,0.0735,-0.00176419,0.00880027,-8.1608e-07,-0.00826698,-0.000407662,0.0292535,3.54954e-06,1.35888e-06,-0.0173143,0.0258403,91.7727,-1.40204,601.951,0.00749478,0.00372255,-51.0873,878,594.626,0.25,-0.25,0.0735,-0.00176419,0.00880027,-8.1608e-07,-0.00826698,-0.000407662,0.0292535,3.54954e-06,1.35888e-06,-0.0173143,0.0258403,91.7727,-1.40204,601.951,0.00749478,0.00372255,-51.0873,878,594.626,0.25,-0.25,0.0735,-0.00176419,0.00880027,-8.1608e-07,-0.00826698,-0.000407662,0.0292535,3.54954e-06,1.35888e-06,-0.0173143,0.0258403,91.7727,-1.40204,601.951,0.00749478,0.00372255,-51.0873,878,594.626,0.25,-0.25,0.0735,-0.00176419,0.00880027,-8.1608e-07,-0.00826698,-0.000407662,0.0292535,3.54954e-06,1.35888e-06,-0.0173143,0.0258403,91.7727,-1.40204,601.951,0.00749478,0.00372255,-51.0873,878,0,0,0,0,0,0,0,0,0,0,0,0,0,0,0,0,0,0,0,0,0,1
stats,97,1,0.98,595.127,0.25,-0.25,0.0735,-0.00180033,0.00886213,-8.02126e-07,-0.00850215,-0.00043301,0.0298944,3.47165e-06,1.37761e-06,-0.0177432,0.0266368,90.071,-2.21117,600.978,0.00496769,0.00498984,-52.4615,878,595.127,0.25,-0.25,0.0735,-0.00180033,0.00886213,-8.02126e-07,-0.00850215,-0.00043301,0.0298944,3.47165e-06,1.37761e-06,-0.0177432,0.0266368,90.071,-2.21117,600.978,0.00496769,0.00498984,-52.4615,878,595.127,0.25,-0.25,0.0735,-0.00180033,0.00886213,-8.02126e-07,-0.00850215,-0.00043301,0.0298944,3.47165e-06,1.37761e-06,-0.0177432,0.0266368,90.071,-2.21117,600.978,0.00496769,0.00498984,-52.4615,878,595.127,0.25,-0.25,0.0735,-0.00180033,0.00886213,-8.02126e-07,-0.00850215,-0.00043301,0.0298944,3.47165e-06,1.37761e-06,-0.0177432,0.0266368,90.071,-2.21117,600.978,0.00496769,0.00498984,-52.4615,878,595.127,0.25,-0.25,0.0735,-0.00180033,0.00886213,-8.02126e-07,-0.00850215,-0.00043301,0.0298944,3.47165e-06,1.37761e-06,-0.0177432,0.0266368,90.071,-2.21117,600.978,0.00496769,0.00498984,-52.4615,878,595.127,0.25,-0.25,0.0735,-0.00180033,0.00886213,-8.02126e-07,-0.00850215,-0.00043301,0.0298944,3.47165e-06,1.37761e-06,-0.0177432,0.0266368,90.071,-2.21117,600.978,0.00496769,0.00498984,-52.4615,878,0,0,0,0,0,0,0,0,0,0,0,0,0,0,0,0,0,0,0,0,0,1
stats,98,1,0.99,597.01,0.25,-0.25,0.0735,-0.00183906,0.00896013,-8.1611e-07,-0.00868028,-0.000412252,0.0304248,3.57104e-06,1.4201e-06,-0.0181136,0.0272774,88.9171,-1.47263,601.086,0.006797,0.00413397,-54.5935,878,597.01,0.25,-0.25,0.0735,-0.00183906,0.00896013,-8.1611e-07,-0.00868028,-0.000412252,0.0304248,3.57104e-06,1.4201e-06,-0.0181136,0.0272774,88.9171,-1.47263,601.086,0.006797,0.00413397,-54.5935,878,597.01,0.25,-0.25,0.0735,-0.00183906,0.00896013,-8.1611e-07,-0.00868028,-0.000412252,0.0304248,3.57104e-06,1.4201e-06,-0.0181136,0.0272774,88.9171,-1.47263,601.086,0.006797,0.00413397,-54.5935,878,597.01,0.25,-0.25,0.0735,-0.00183906,0.00896013,-8.1611e-07,-0.00868028,-0.000412252,0.0304248,3.57104e-06,1.4201e-06,-0.0181136,0.0272774,88.9171,-1.47263,601.086,0.006797,0.00413397,-54.5935,878,597.01,0.25,-0.25,0.0735,-0.00183906,0.00896013,-8.1611e-07,-0.00868028,-0.000412252,0.0304248,3.57104e-06,1.4201e-06,-0.0181136,0.0272774,88.9171,-1.47263,601.086,0.006797,0.00413397,-54.5935,878,597.01,0.25,-0.25,0.0735,-0.00183906,0.00896013,-8.1611e-07,-0.00868028,-0.000412252,0.0304248,3.57104e-06,1.4201e-06,-0.0181136,0.0272774,88.9171,-1.47263,601.086,0.006797,0.00413397,-54.5935,878,0,0,0,0,0,0,0,0,0,0,0,0,0,0,0,0,0,0,0,0,0,1
stats,99,1,1,597.388,0.25,-0.25,0.0735,-0.00187541,0.00902044,-1.1814e-06,-0.0089198,-0.000438485,0.0310731,3.52595e-06,1.34167e-06,-0.018547,0.0280854,87.1388,-2.29241,599.949,0.00526053,0.00301969,-55.9873,878,597.388,0.25,-0.25,0.0735,-0.00187541,0.00902044,-1.1814e-06,-0.0089198,-0.000438485,0.0310731,3.52595e-06,1.34167e-06,-0.018547,0.0280854,87.1388,-2.29241,599.949,0.00526053,0.00301969,-55.9873,878,597.388,0.25,-0.25,0.0735,-0.00187541,0.00902044,-1.1814e-06,-0.0089198,-0.000438485,0.0310731,3.52595e-06,1.34167e-06,-0.018547,0.0280854,87.1388,-2.29241,599.949,0.00526053,0.00301969,-55.9873,878,597.388,0.25,-0.25,0.0735,-0.00187541,0.00902044,-1.1814e-06,-0.0089198,-0.000438485,0.0310731,3.52595e-06,1.34167e-06,-0.018547,0.0280854,87.1388,-2.29241,599.949,0.00526053,0.00301969,-55.9873,878,597.388,0.25,-0.25,0.0735,-0.00187541,0.00902044,-1.1814e-06,-0.0089198,-0.000438485,0.0310731,3.52595e-06,1.34167e-06,-0.018547,0.0280854,87.1388,-2.29241,599.949,0.00526053,0.00301969,-55.9873,878,597.388,0.25,-0.25,0.0735,-0.00187541,0.00902044,-1.1814e-06,-0.0089198,-0.000438485,0.0310731,3.52595e-06,1.34167e-06,-0.018547,0.0280854,87.1388,-2.29241,599.949,0.00526053,0.00301969,-55.9873,878,0,0,0,0,0,0,0,0,0,0,0,0,0,0,0,0,0,0,0,0,0,1
